*Heading
 Refined four-hole plate with CPS3 left and CPS4 right, at least 10x source element count
** Job name: MixedPlateCps3Cps4_Perforated_10xJob Model name: MixedPlateCps3Cps4_Perforated_10x
** Generated by: Abaqus/CAE 2024
*Preprint, echo=NO, model=NO, history=NO, contact=NO
**
** PARTS
**
*Part, name=PART-PERFORATED
*Node
      1,         170.,          25.
      2,         200.,           0.
      3,         170.,          75.
      4,         100.,           0.
      5,         200.,         100.
      6,         100.,         100.
      7,           0.,         100.
      8,           0.,           0.
      9,          50.,          25.
     10,          50.,          75.
     11,         100.,   98.4365005
     12,         100.,   96.6105728
     13,         100.,   94.9847412
     14,         100.,   93.3607025
     15,         100.,   91.7313919
     16,         100.,   90.0526428
     17,         100.,     88.36409
     18,         100.,   86.7145157
     19,         100.,   85.0324707
     20,         100.,   83.3509674
     21,         100.,   81.7126007
     22,         100.,   80.0694199
     23,         100.,   78.3976898
     24,         100.,   76.6943207
     25,         100.,   75.0054779
     26,         100.,   73.3712463
     27,         100.,   71.7529984
     28,         100.,   70.0819473
     29,         100.,   68.4243011
     30,         100.,   66.7897644
     31,         100.,   65.1300659
     32,         100.,   63.4153862
     33,         100.,   61.7782707
     34,         100.,   60.1919556
     35,         100.,   58.7510452
     36,         100.,   57.3236008
     37,         100.,   55.9342957
     38,         100.,   54.5557327
     39,         100.,   53.1670113
     40,         100.,   51.7758255
     41,         100.,   50.3949623
     42,         100.,   49.0461502
     43,         100.,   47.6356201
     44,         100.,   46.2509193
     45,         100.,    44.854908
     46,         100.,   43.4617004
     47,         100.,    42.074852
     48,         100.,   40.6698608
     49,         100.,   39.2634048
     50,         100.,   37.8931046
     51,         100.,   36.5378304
     52,         100.,   35.1558495
     53,         100.,   33.7470512
     54,         100.,   32.3292847
     55,         100.,   30.9136848
     56,         100.,    29.482687
     57,         100.,   28.1023159
     58,         100.,   26.8106537
     59,         100.,   25.4816551
     60,         100.,   24.0554085
     61,         100.,   22.5810547
     62,         100.,   21.0589561
     63,         100.,   19.5431786
     64,         100.,   18.0955391
     65,         100.,   16.6182938
     66,         100.,   15.0830746
     67,         100.,   13.5570402
     68,         100.,   12.0459347
     69,         100.,   10.5361347
     70,         100.,   9.02419472
     71,         100.,   7.50908899
     72,         100.,    5.9966383
     73,         100.,   4.49991322
     74,         100.,   3.02810645
     75,         100.,   1.39450884
     76,   101.526237,           0.
     77,   103.054802,           0.
     78,   104.584694,           0.
     79,   106.115326,           0.
     80,   107.637642,           0.
     81,   109.128593,           0.
     82,   110.615013,           0.
     83,   112.096558,           0.
     84,   113.589363,           0.
     85,   115.099876,           0.
     86,   116.610374,           0.
     87,    118.12088,           0.
     88,   119.631386,           0.
     89,   121.141899,           0.
     90,   122.652405,           0.
     91,   124.162903,           0.
     92,   125.673409,           0.
     93,   127.183922,           0.
     94,    128.86792,           0.
     95,   130.499039,           0.
     96,   132.017456,           0.
     97,     133.5009,           0.
     98,   135.073486,           0.
     99,   136.642273,           0.
    100,   138.190674,           0.
    101,   139.769897,           0.
    102,   141.343872,           0.
    103,   142.926071,           0.
    104,    144.51265,           0.
    105,    146.14241,           0.
    106,   147.832565,           0.
    107,   149.508362,           0.
    108,   151.181381,           0.
    109,    152.87352,           0.
    110,   154.605087,           0.
    111,   156.341614,           0.
    112,   158.110397,           0.
    113,   159.821823,           0.
    114,     161.4879,           0.
    115,   163.121414,           0.
    116,   164.733948,           0.
    117,     166.3349,           0.
    118,   167.932144,           0.
    119,   169.527237,           0.
    120,   171.123779,           0.
    121,   172.722656,           0.
    122,   174.323669,           0.
    123,    175.92627,           0.
    124,   177.529892,           0.
    125,   179.134109,           0.
    126,   180.738708,           0.
    127,   182.343506,           0.
    128,    183.94841,           0.
    129,    185.55336,           0.
    130,   187.158325,           0.
    131,   188.763306,           0.
    132,   190.368286,           0.
    133,   191.973267,           0.
    134,   193.578262,           0.
    135,   195.183304,           0.
    136,   196.788528,           0.
    137,   198.394043,           0.
    138,         200.,   1.56803071
    139,         200.,   3.13655567
    140,         200.,    4.7053504
    141,         200.,   6.27417898
    142,         200.,   7.84266138
    143,         200.,   9.41024303
    144,         200.,   10.9762964
    145,         200.,   12.5402441
    146,         200.,   14.1016436
    147,         200.,   15.6601629
    148,         200.,   17.2171173
    149,         200.,   18.7731247
    150,         200.,   20.3296719
    151,         200.,   21.8881893
    152,         200.,   23.4493122
    153,         200.,   25.0126858
    154,         200.,   26.5780354
    155,         200.,    28.143919
    156,         200.,    29.709631
    157,         200.,   31.2750988
    158,         200.,   32.8409729
    159,         200.,   34.4089622
    160,         200.,   35.9776726
    161,         200.,   37.5482063
    162,         200.,   39.1207619
    163,         200.,   40.6950035
    164,         200.,   42.2704582
    165,         200.,   43.8466949
    166,         200.,   45.4234047
    167,         200.,   47.0003853
    168,         200.,    48.577179
    169,         200.,   50.1526909
    170,         200.,   51.7256927
    171,         200.,   53.2959251
    172,         200.,   54.8650093
    173,         200.,    56.427845
    174,         200.,   57.9875908
    175,         200.,   59.5447121
    176,         200.,   61.0990944
    177,         200.,   62.6505852
    178,         200.,   64.1993103
    179,         200.,   65.7460709
    180,         200.,   67.2888794
    181,         200.,   68.8300705
    182,         200.,   70.3720093
    183,         200.,    71.916954
    184,         200.,   73.4663773
    185,         200.,    75.020134
    186,         200.,   76.5780945
    187,         200.,   78.1380539
    188,         200.,   79.6985474
    189,         200.,   81.2588196
    190,         200.,   82.8186874
    191,         200.,   84.3783264
    192,         200.,   85.9382935
    193,         200.,   87.4989014
    194,         200.,   89.0602188
    195,         200.,   90.6221848
    196,         200.,   92.1846237
    197,         200.,   93.7473831
    198,         200.,   95.3103638
    199,         200.,   96.8734741
    200,         200.,   98.4366989
    201,    198.40004,         100.
    202,   196.800125,         100.
    203,   195.200241,         100.
    204,   193.600388,         100.
    205,   192.000534,         100.
    206,   190.400696,         100.
    207,   188.800858,         100.
    208,   187.201035,         100.
    209,   185.601196,         100.
    210,   184.001389,         100.
    211,   182.401566,         100.
    212,   180.801758,         100.
    213,    179.20195,         100.
    214,   177.602219,         100.
    215,   176.002701,         100.
    216,   174.403671,         100.
    217,   172.805344,         100.
    218,   171.207779,         100.
    219,   169.610641,         100.
    220,      168.013,         100.
    221,   166.415543,         100.
    222,   164.820053,         100.
    223,   163.231506,         100.
    224,   161.655457,         100.
    225,   160.094971,         100.
    226,   158.555496,         100.
    227,   157.031815,         100.
    228,    155.51857,         100.
    229,   154.011612,         100.
    230,   152.508102,         100.
    231,   151.006363,         100.
    232,   149.505508,         100.
    233,   148.005066,         100.
    234,   146.504776,         100.
    235,   145.004578,         100.
    236,    143.50441,         100.
    237,   142.004257,         100.
    238,   140.504105,         100.
    239,   139.003967,         100.
    240,   137.503815,         100.
    241,   136.003662,         100.
    242,   134.503525,         100.
    243,   133.003372,         100.
    244,    131.50322,         100.
    245,   130.003067,         100.
    246,   128.502914,         100.
    247,   127.002769,         100.
    248,   125.502617,         100.
    249,   124.002464,         100.
    250,   122.502312,         100.
    251,   121.002167,         100.
    252,   119.502014,         100.
    253,   118.001862,         100.
    254,   116.501709,         100.
    255,   115.001556,         100.
    256,   113.501404,         100.
    257,   112.001259,         100.
    258,   110.501122,         100.
    259,   109.000954,         100.
    260,   107.500801,         100.
    261,   106.000648,         100.
    262,   104.500496,         100.
    263,   103.000343,         100.
    264,   101.500175,         100.
    265,   169.923889,   26.2314453
    266,   169.690643,   27.4680519
    267,   169.292847,   28.6936588
    268,   168.702316,   29.9264183
    269,   167.885773,   31.1493626
    270,   166.812576,   32.3204384
    271,   165.568314,   33.3062515
    272,   164.262497,    34.046051
    273,   162.948242,   34.5555153
    274,   161.643265,   34.8640594
    275,   160.352386,   34.9937897
    276,   159.080368,   34.9576263
    277,   157.874466,   34.7714958
    278,   156.757004,   34.4595451
    279,    155.67601,   34.0168228
    280,   154.630112,    33.435894
    281,   153.649307,   32.7245483
    282,   152.709534,    31.844635
    283,   151.862762,   30.8125153
    284,   151.110703,   29.5804501
    285,   150.514313,   28.1657257
    286,   150.126312,   26.5843468
    287,   150.000061,   24.9667702
    288,   150.110596,   23.5168858
    289,   150.419891,   22.1327057
    290,   150.908463,   20.8353901
    291,   151.601868,   19.5712414
    292,   152.539505,   18.3410912
    293,   153.609818,   17.3080845
    294,   154.823792,   16.4438953
    295,   155.756805,   15.9448748
    296,   156.607346,    15.593091
    297,   157.453629,   15.3296356
    298,   158.308289,   15.1441326
    299,   159.175674,   15.0340328
    300,   160.060394,   15.0001822
    301,   161.328156,   15.0885935
    302,   162.632538,   15.3527336
    303,   163.960678,   15.8177853
    304,    165.28656,   16.5116348
    305,   166.583847,   17.4731789
    306,   167.698547,   18.6178074
    307,   168.599274,   19.8958321
    308,   169.239044,   21.1737728
    309,   169.673889,   22.4670238
    310,   169.920181,   23.7390308
    311,   169.914932,     76.30159
    312,   169.650391,    77.621048
    313,    169.18988,   78.9428482
    314,   168.520187,   80.2351151
    315,   167.645203,   81.4459915
    316,   166.602188,   82.5107346
    317,   165.414017,   83.4076385
    318,   164.100403,   84.1206741
    319,   162.737442,   84.6180267
    320,   161.319031,   84.9126282
    321,   159.899872,   84.9994965
    322,   158.527542,   84.8909988
    323,   157.212173,   84.6035461
    324,    155.93718,   84.1374741
    325,    154.64888,   83.4478073
    326,   153.547775,   82.6399536
    327,   152.612122,   81.7393799
    328,   151.831741,   80.7688522
    329,   151.202377,   79.7541428
    330,   150.692688,   78.6570206
    331,   150.324402,   77.5264206
    332,   150.095337,   76.3775635
    333,   150.003647,   75.2699509
    334,   150.039001,    74.117691
    335,   150.204559,   72.9877167
    336,   150.503281,   71.8675156
    337,   150.993073,   70.6554337
    338,   151.692856,   69.4330063
    339,   152.596497,   68.2777939
    340,   153.679855,   67.2504349
    341,   154.896454,   66.4003601
    342,   156.192566,   65.7531891
    343,    157.53624,   65.3082581
    344,   158.920822,    65.058403
    345,    160.31868,   65.0050812
    346,   161.737732,   65.1521454
    347,   163.178635,   65.5186386
    348,   164.629135,   66.1359634
    349,   166.038315,   67.0288773
    350,   167.331985,   68.1998444
    351,    168.37056,   69.5288239
    352,    169.11998,   70.8980637
    353,   169.623611,     72.28228
    354,   169.908005,   73.6466599
    355,   98.5074615,         100.
    356,   97.0149231,         100.
    357,   95.5223846,         100.
    358,   94.0298538,         100.
    359,   92.5373154,         100.
    360,   91.0447769,         100.
    361,   89.5522385,         100.
    362,      88.0597,         100.
    363,   86.5671616,         100.
    364,   85.0746231,         100.
    365,   83.5820923,         100.
    366,   82.0895538,         100.
    367,   80.5970154,         100.
    368,   79.1044769,         100.
    369,   77.6119385,         100.
    370,      76.1194,         100.
    371,   74.6268692,         100.
    372,   73.1343307,         100.
    373,   71.6417923,         100.
    374,   70.1492538,         100.
    375,   68.6567154,         100.
    376,   67.1641769,         100.
    377,   65.6716385,         100.
    378,   64.1791077,         100.
    379,   62.6865654,         100.
    380,   61.1940308,         100.
    381,   59.7014923,         100.
    382,   58.2089539,         100.
    383,   56.7164192,         100.
    384,   55.2238808,         100.
    385,   53.7313423,         100.
    386,   52.2388077,         100.
    387,   50.7462692,         100.
    388,   49.2537308,         100.
    389,   47.7611923,         100.
    390,   46.2686577,         100.
    391,   44.7761192,         100.
    392,   43.2835808,         100.
    393,   41.7910461,         100.
    394,   40.2985077,         100.
    395,   38.8059692,         100.
    396,   37.3134346,         100.
    397,   35.8208961,         100.
    398,   34.3283577,         100.
    399,   32.8358192,         100.
    400,   31.3432827,         100.
    401,   29.8507462,         100.
    402,   28.3582096,         100.
    403,   26.8656712,         100.
    404,   25.3731346,         100.
    405,   23.8805962,         100.
    406,   22.3880596,         100.
    407,   20.8955231,         100.
    408,   19.4029846,         100.
    409,   17.9104481,         100.
    410,   16.4179096,         100.
    411,   14.9253731,         100.
    412,   13.4328356,         100.
    413,   11.9402981,         100.
    414,   10.4477615,         100.
    415,   8.95522404,         100.
    416,   7.46268654,         100.
    417,   5.97014904,         100.
    418,   4.47761202,         100.
    419,   2.98507452,         100.
    420,   1.49253726,         100.
    421,           0.,   98.5074615
    422,           0.,   97.0149231
    423,           0.,   95.5223846
    424,           0.,   94.0298538
    425,           0.,   92.5373154
    426,           0.,   91.0447769
    427,           0.,   89.5522385
    428,           0.,      88.0597
    429,           0.,   86.5671616
    430,           0.,   85.0746231
    431,           0.,   83.5820923
    432,           0.,   82.0895538
    433,           0.,   80.5970154
    434,           0.,   79.1044769
    435,           0.,   77.6119385
    436,           0.,      76.1194
    437,           0.,   74.6268692
    438,           0.,   73.1343307
    439,           0.,   71.6417923
    440,           0.,   70.1492538
    441,           0.,   68.6567154
    442,           0.,   67.1641769
    443,           0.,   65.6716385
    444,           0.,   64.1791077
    445,           0.,   62.6865654
    446,           0.,   61.1940308
    447,           0.,   59.7014923
    448,           0.,   58.2089539
    449,           0.,   56.7164192
    450,           0.,   55.2238808
    451,           0.,   53.7313423
    452,           0.,   52.2388077
    453,           0.,   50.7462692
    454,           0.,   49.2537308
    455,           0.,   47.7611923
    456,           0.,   46.2686577
    457,           0.,   44.7761192
    458,           0.,   43.2835808
    459,           0.,   41.7910461
    460,           0.,   40.2985077
    461,           0.,   38.8059692
    462,           0.,   37.3134346
    463,           0.,   35.8208961
    464,           0.,   34.3283577
    465,           0.,   32.8358192
    466,           0.,   31.3432827
    467,           0.,   29.8507462
    468,           0.,   28.3582096
    469,           0.,   26.8656712
    470,           0.,   25.3731346
    471,           0.,   23.8805962
    472,           0.,   22.3880596
    473,           0.,   20.8955231
    474,           0.,   19.4029846
    475,           0.,   17.9104481
    476,           0.,   16.4179096
    477,           0.,   14.9253731
    478,           0.,   13.4328356
    479,           0.,   11.9402981
    480,           0.,   10.4477615
    481,           0.,   8.95522404
    482,           0.,   7.46268654
    483,           0.,   5.97014904
    484,           0.,   4.47761202
    485,           0.,   2.98507452
    486,           0.,   1.49253726
    487,   1.49253726,           0.
    488,   2.98507452,           0.
    489,   4.47761202,           0.
    490,   5.97014904,           0.
    491,   7.46268654,           0.
    492,   8.95522404,           0.
    493,   10.4477615,           0.
    494,   11.9402981,           0.
    495,   13.4328356,           0.
    496,   14.9253731,           0.
    497,   16.4179096,           0.
    498,   17.9104481,           0.
    499,   19.4029846,           0.
    500,   20.8955231,           0.
    501,   22.3880596,           0.
    502,   23.8805962,           0.
    503,   25.3731346,           0.
    504,   26.8656712,           0.
    505,   28.3582096,           0.
    506,   29.8507462,           0.
    507,   31.3432827,           0.
    508,   32.8358192,           0.
    509,   34.3283577,           0.
    510,   35.8208961,           0.
    511,   37.3134346,           0.
    512,   38.8059692,           0.
    513,   40.2985077,           0.
    514,   41.7910461,           0.
    515,   43.2835808,           0.
    516,   44.7761192,           0.
    517,   46.2686577,           0.
    518,   47.7611923,           0.
    519,   49.2537308,           0.
    520,   50.7462692,           0.
    521,   52.2388077,           0.
    522,   53.7313423,           0.
    523,   55.2238808,           0.
    524,   56.7164192,           0.
    525,   58.2089539,           0.
    526,   59.7014923,           0.
    527,   61.1940308,           0.
    528,   62.6865654,           0.
    529,   64.1791077,           0.
    530,   65.6716385,           0.
    531,   67.1641769,           0.
    532,   68.6567154,           0.
    533,   70.1492538,           0.
    534,   71.6417923,           0.
    535,   73.1343307,           0.
    536,   74.6268692,           0.
    537,      76.1194,           0.
    538,   77.6119385,           0.
    539,   79.1044769,           0.
    540,   80.5970154,           0.
    541,   82.0895538,           0.
    542,   83.5820923,           0.
    543,   85.0746231,           0.
    544,   86.5671616,           0.
    545,      88.0597,           0.
    546,   89.5522385,           0.
    547,   91.0447769,           0.
    548,   92.5373154,           0.
    549,   94.0298538,           0.
    550,   95.5223846,           0.
    551,   97.0149231,           0.
    552,   98.5074615,           0.
    553,   49.8883095,   26.4904232
    554,   49.5557289,   27.9475517
    555,   49.0096893,   29.3388367
    556,   48.2623863,   30.6331997
    557,   47.3305168,   31.8017273
    558,   46.2348976,   32.8183136
    559,          45.,   33.6602554
    560,   43.6534119,   34.3087387
    561,   42.2252083,    34.749279
    562,   40.7472992,   34.9720383
    563,   39.2527008,   34.9720383
    564,   37.7747917,    34.749279
    565,   36.3465881,   34.3087387
    566,          35.,   33.6602554
    567,   33.7651024,   32.8183136
    568,   32.6694832,   31.8017273
    569,   31.7376118,   30.6331997
    570,   30.9903107,   29.3388367
    571,   30.4442711,   27.9475517
    572,   30.1116924,   26.4904232
    573,          30.,          25.
    574,   30.1116924,   23.5095768
    575,   30.4442711,   22.0524483
    576,   30.9903107,   20.6611633
    577,   31.7376118,   19.3668003
    578,   32.6694832,   18.1982727
    579,   33.7651024,   17.1816845
    580,          35.,   16.3397465
    581,   36.3465881,   15.6912622
    582,   37.7747917,    15.250721
    583,   39.2527008,   15.0279617
    584,   40.7472992,   15.0279617
    585,   42.2252083,    15.250721
    586,   43.6534119,   15.6912622
    587,          45.,   16.3397465
    588,   46.2348976,   17.1816845
    589,   47.3305168,   18.1982727
    590,   48.2623863,   19.3668003
    591,   49.0096893,   20.6611633
    592,   49.5557289,   22.0524483
    593,   49.8883095,   23.5095768
    594,   49.8883095,   76.4904251
    595,   49.5557289,   77.9475555
    596,   49.0096893,   79.3388367
    597,   48.2623863,   80.6332016
    598,   47.3305168,   81.8017273
    599,   46.2348976,   82.8183136
    600,          45.,   83.6602554
    601,   43.6534119,   84.3087387
    602,   42.2252083,   84.7492828
    603,   40.7472992,   84.9720383
    604,   39.2527008,   84.9720383
    605,   37.7747917,   84.7492828
    606,   36.3465881,   84.3087387
    607,          35.,   83.6602554
    608,   33.7651024,   82.8183136
    609,   32.6694832,   81.8017273
    610,   31.7376118,   80.6332016
    611,   30.9903107,   79.3388367
    612,   30.4442711,   77.9475555
    613,   30.1116924,   76.4904251
    614,          30.,          75.
    615,   30.1116924,   73.5095749
    616,   30.4442711,   72.0524445
    617,   30.9903107,   70.6611633
    618,   31.7376118,   69.3667984
    619,   32.6694832,   68.1982727
    620,   33.7651024,   67.1816864
    621,          35.,   66.3397446
    622,   36.3465881,   65.6912613
    623,   37.7747917,   65.2507172
    624,   39.2527008,   65.0279617
    625,   40.7472992,   65.0279617
    626,   42.2252083,   65.2507172
    627,   43.6534119,   65.6912613
    628,          45.,   66.3397446
    629,   46.2348976,   67.1816864
    630,   47.3305168,   68.1982727
    631,   48.2623863,   69.3667984
    632,   49.0096893,   70.6611633
    633,   49.5557289,   72.0524445
    634,   49.8883095,   73.5095749
    635,   158.819733,     53.16259
    636,   134.290878,    49.921566
    637,   139.407974,   24.5581818
    638,   130.293655,   67.1458969
    639,   198.535675,   25.0109329
    640,   197.070129,   25.0087833
    641,   195.605301,   25.0062904
    642,   194.149521,    25.003767
    643,   192.734375,    25.001585
    644,   191.325775,   25.0002289
    645,   189.931656,   24.9995117
    646,   188.571426,          25.
    647,   187.142853,          25.
    648,   185.714279,          25.
    649,   184.285721,          25.
    650,   182.857147,          25.
    651,   181.428574,          25.
    652,   179.939255,   24.9975243
    653,   178.390442,   24.9924984
    654,   176.793335,   24.9862194
    655,   175.260696,   24.9843483
    656,   173.825836,   24.9829769
    657,   172.446854,   24.9821968
    658,   171.213364,   24.9843063
    659,   160.039581,    13.646306
    660,   160.101746,   12.3598166
    661,   160.126068,     11.04072
    662,   160.134933,   9.71540833
    663,   160.107315,   8.35665321
    664,   160.063873,   7.00290394
    665,    160.00296,    5.6212368
    666,   159.933685,   4.23241377
    667,   159.874664,   2.82814479
    668,   159.832657,   1.41693509
    669,    198.41394,   54.8457794
    670,   196.827759,   54.8084221
    671,   195.241486,    54.758297
    672,   193.655197,   54.7006302
    673,   192.068893,   54.6391983
    674,    190.48259,   54.5760841
    675,   188.896271,   54.5122452
    676,   187.309952,   54.4480934
    677,   185.723633,   54.3838005
    678,   184.137329,   54.3194466
    679,    182.55101,    54.255043
    680,   180.964722,   54.1905785
    681,   179.378448,   54.1260147
    682,   177.792267,   54.0613556
    683,   176.206406,   53.9967499
    684,   174.621643,   53.9306335
    685,   173.041336,   53.8437195
    686,   171.459305,   53.7761917
    687,   169.878296,   53.7110214
    688,   168.302765,   53.6103973
    689,   166.728851,    53.498394
    690,   165.145325,   53.4783478
    691,    163.56604,   53.4023476
    692,    161.98703,   53.3117523
    693,    160.39917,   53.2678909
    694,    158.84137,   51.7559204
    695,   158.837601,   50.4414444
    696,   158.845627,   49.1499062
    697,   158.883316,   47.7236214
    698,   158.914398,   46.3183937
    699,   158.934982,   44.9571457
    700,   158.951538,    43.612999
    701,   158.966476,   42.2773476
    702,   158.982819,   40.9486122
    703,   158.997864,   39.6456337
    704,   159.015625,   38.3721352
    705,   159.034149,    37.153183
    706,   159.053314,   36.0387192
    707,   153.907852,   15.0152359
    708,   153.462524,   13.4047842
    709,   152.813492,   11.8887577
    710,   152.224731,   10.3806782
    711,   151.656815,   8.88522911
    712,   151.105072,   7.39813709
    713,   150.572662,   5.91579533
    714,   150.058258,   4.43631172
    715,   149.628311,   2.95700169
    716,   149.513367,   1.47775745
    717,   158.769531,   63.7894249
    718,   158.637985,   62.5128479
    719,   158.535782,   61.0446358
    720,   158.552155,   59.4460449
    721,   158.635361,   57.8076363
    722,   158.707291,   56.2155914
    723,   158.768997,   54.6675797
    724,   198.593903,   75.0200272
    725,   197.189362,   75.0197754
    726,   195.796646,   75.0184631
    727,   194.439209,   75.0137711
    728,   193.181824,          75.
    729,   191.818176,          75.
    730,   190.454544,          75.
    731,   189.090912,          75.
    732,    187.72728,          75.
    733,   186.363632,          75.
    734,         185.,          75.
    735,   183.636368,          75.
    736,    182.27272,          75.
    737,   180.909088,          75.
    738,   179.468033,   75.0025253
    739,     178.0298,   75.0048599
    740,   176.305588,   75.0060806
    741,   174.843719,   75.0023499
    742,   173.502563,   74.9956589
    743,   172.269791,   74.9869995
    744,    171.14801,   74.9747086
    745,   157.242218,   53.0310822
    746,   155.682068,   52.8471756
    747,   154.129425,   52.6417007
    748,   152.561157,   52.4518356
    749,   151.013611,   52.2375679
    750,   149.481262,   52.0093842
    751,   147.958221,   51.7750816
    752,   146.439453,   51.5407257
    753,   144.922424,   51.3107376
    754,   143.401489,   51.0914841
    755,   141.877106,    50.882534
    756,   140.350632,   50.6816711
    757,    138.82547,   50.4856262
    758,   137.306992,   50.2907562
    759,   135.791336,   50.1092606
    760,   134.656433,   48.2565498
    761,   135.017441,   46.5792923
    762,   135.379257,   44.8883514
    763,   135.742233,   43.1884232
    764,    136.10582,   41.4839211
    765,   136.469604,   39.7774124
    766,   136.833176,   38.0702209
    767,   137.196411,   36.3632126
    768,   137.560913,   34.6572495
    769,     137.9245,   32.9526329
    770,    138.27774,   31.2494736
    771,   138.612305,   29.5499306
    772,   138.925293,   27.8581829
    773,   139.158371,   26.2012863
    774,   140.878708,   24.5754528
    775,   142.309937,   24.5817146
    776,   143.662521,   24.6130791
    777,   144.998657,   24.6545067
    778,   146.320236,   24.8152714
    779,   147.605331,   24.9640274
    780,   148.817184,   25.0649986
    781,   137.874207,   24.5396137
    782,    136.28299,   24.5220108
    783,   134.698944,   24.4858742
    784,   133.089767,   24.4473381
    785,   131.440353,   24.4212151
    786,   129.787476,   24.3946629
    787,   128.133179,   24.3679485
    788,   126.478363,   24.3411789
    789,   124.823357,   24.3143864
    790,   123.168282,     24.28759
    791,   121.513191,   24.2607918
    792,   119.858093,   24.2339897
    793,   118.202995,   24.2071896
    794,   116.538506,   24.1810646
    795,   114.882034,   24.1534901
    796,   113.227562,   24.1255665
    797,   111.573593,   24.0975876
    798,   109.919754,   24.0696945
    799,   108.265976,   24.0421486
    800,   106.612228,   24.0162544
    801,   104.958603,   23.9959488
    802,   103.305237,    23.988306
    803,   101.652313,    24.003624
    804,   160.091919,   98.7084503
    805,   160.081512,   97.4289093
    806,   160.040771,   96.1962585
    807,    160.04332,   94.9259644
    808,   160.045807,   93.6555634
    809,   160.050629,   92.3582687
    810,   160.016983,   90.9824448
    811,   159.917084,   89.6507874
    812,   159.802567,   88.3895493
    813,   159.760315,   87.2303696
    814,   159.772247,   86.0918961
    815,   130.645493,   65.5821457
    816,   131.021729,   64.0247803
    817,    131.40564,   62.4705009
    818,    131.78981,   60.9177322
    819,   132.169937,   59.3653679
    820,    132.54277,   57.8126297
    821,   132.903748,   56.2585106
    822,   133.256958,   54.6979218
    823,    133.60965,   53.1196671
    824,   133.958328,   51.5226212
    825,   149.324585,   71.6096191
    826,   148.186813,   71.3351822
    827,   147.018372,   71.0523987
    828,    145.83905,   70.7715073
    829,   144.653625,   70.4911728
    830,   143.464325,   70.2113342
    831,   142.272644,   69.9318619
    832,    141.07962,   69.6526108
    833,   139.885895,   69.3735046
    834,   138.691788,   69.0944977
    835,   137.497498,    68.815567
    836,   136.303116,   68.5366745
    837,   135.108688,   68.2577591
    838,     133.9142,   67.9787827
    839,   132.719574,   67.6996384
    840,   131.524506,   67.4202499
    841,   129.031418,   66.8481522
    842,   127.769188,   66.5504074
    843,    126.50695,   66.2526627
    844,    125.24472,   65.9549179
    845,   123.982483,   65.6571655
    846,   122.745735,      65.3638
    847,   121.499519,    65.071312
    848,   120.259392,   64.7826157
    849,   119.031296,   64.5023041
    850,   117.772621,   64.2129669
    851,   116.507156,   63.9231758
    852,   115.252037,   63.6405106
    853,    113.98629,   63.3527985
    854,   112.721077,   63.0679398
    855,   111.452736,    62.781456
    856,   110.181885,   62.4936981
    857,   108.904823,    62.197464
    858,   107.629326,   61.9011459
    859,   106.357765,   61.6113205
    860,   105.087906,   61.3308678
    861,    103.81752,   61.0555305
    862,   102.543854,   60.7677765
    863,   101.271126,    60.478302
    864,   167.762665,   16.1519184
    865,   171.114014,   23.6229439
    866,   170.834671,    22.233696
    867,   170.359329,   20.7826996
    868,   169.707153,   19.3990879
    869,   168.836639,   17.9123859
    870,   169.571121,   16.1709709
    871,   171.301834,   16.1197662
    872,   172.930054,   16.0923634
    873,    174.53244,   16.0691566
    874,   176.127594,   16.0446777
    875,   177.734955,   16.0135155
    876,   179.357086,   15.9763756
    877,   180.953339,   15.9471331
    878,   182.543137,   15.9196577
    879,   184.157623,   15.8843689
    880,    185.78421,    15.845686
    881,   187.377045,   15.8171005
    882,   188.959686,   15.7915602
    883,   190.539185,   15.7669792
    884,    192.11763,   15.7427959
    885,   193.695587,   15.7192211
    886,   195.273087,   15.6973677
    887,   196.849884,   15.6792059
    888,   198.425659,   15.6670027
    889,   161.445557,   13.8537807
    890,   162.882996,   14.1615286
    891,   164.378601,   14.6291962
    892,   165.967239,    15.279067
    893,   167.919342,    1.5744307
    894,   167.895142,   3.14632893
    895,   167.863068,   4.71597099
    896,   167.826797,   6.28306818
    897,   167.790833,   7.84688759
    898,   167.761688,   9.40752125
    899,   167.746735,   10.9701672
    900,   167.746948,   12.5570908
    901,   167.758713,   14.2252579
    902,   198.446381,   17.2230186
    903,   198.471344,   18.7776279
    904,   198.496353,   20.3327446
    905,    198.51712,   21.8899269
    906,   198.529572,   23.4497261
    907,   196.892715,    17.233717
    908,   196.942505,   18.7857933
    909,   196.991821,   20.3383026
    910,   197.032532,   21.8930359
    911,   197.057388,   23.4503498
    912,   195.338593,   17.2484169
    913,   195.413269,   18.7967663
    914,   195.486618,   20.3457413
    915,   195.547699,   21.8972111
    916,   195.585052,   23.4512844
    917,   193.784012,   17.2657642
    918,   193.883667,   18.8096333
    919,   193.981735,   20.3544636
    920,   194.062973,   21.9021645
    921,   194.117798,   23.4525604
    922,   192.229126,   17.2845554
    923,   192.354187,   18.8236122
    924,   192.476715,    20.363987
    925,    192.58223,   21.9076653
    926,   192.665833,   23.4542427
    927,   190.674042,   17.3040218
    928,   190.824432,   18.8381805
    929,   190.973038,   20.3739834
    930,   191.106995,   21.9135857
    931,   191.223206,   23.4564476
    932,   189.118378,    17.323864
    933,   189.294754,   18.8530731
    934,   189.471313,   20.3842773
    935,   189.636841,   21.9198456
    936,   189.789658,   23.4591446
    937,   187.561264,   17.3442307
    938,   187.764893,    18.868269
    939,   187.970642,   20.3948021
    940,   188.169083,    21.926384
    941,   188.363083,   23.4623356
    942,   185.999146,   17.3661346
    943,    186.23291,   18.8841496
    944,   186.468292,   20.4056435
    945,   186.696396,   21.9330997
    946,   186.918579,     23.46558
    947,   184.426208,   17.3913002
    948,   184.697021,    18.901165
    949,   184.963593,   20.4169083
    950,   185.220169,   21.9399891
    951,   185.468231,   23.4688911
    952,   182.854538,   17.4160919
    953,     183.1604,    18.918335
    954,   183.457672,   20.4283295
    955,   183.742126,   21.9469719
    956,   184.015808,   23.4722404
    957,   181.288925,      17.4389
    958,   181.624802,   18.9351006
    959,   181.951416,   20.4397278
    960,   182.263245,   21.9539986
    961,   182.562576,   23.4756317
    962,   179.721252,   17.4622154
    963,   180.088333,   18.9521294
    964,   180.444672,   20.4513721
    965,   180.784027,   21.9612713
    966,     181.1091,   23.4792042
    967,   178.147049,   17.4876709
    968,     178.5504,   18.9703026
    969,   178.937988,   20.4641151
    970,   179.305344,   21.9695721
    971,   179.635681,   23.4826202
    972,   176.576859,   17.5128803
    973,   177.015213,   18.9906883
    974,   177.434402,   20.4799976
    975,     177.8228,   21.9805241
    976,   178.156067,   23.4874897
    977,   175.012863,   17.5399818
    978,      175.487,   19.0174332
    979,   175.937195,   20.5034828
    980,   176.343445,    21.997921
    981,   176.631622,   23.4943657
    982,   173.451706,   17.5763283
    983,   173.970947,   19.0588112
    984,   174.456085,   20.5418053
    985,   174.865875,   22.0268211
    986,   175.132446,   23.5089207
    987,   171.891144,   17.6342545
    988,   172.479248,   19.1266956
    989,   173.006027,   20.6027431
    990,    173.42511,   22.0732861
    991,   173.742859,   23.5296097
    992,    170.33429,   17.7355804
    993,   171.037842,   19.2352867
    994,   171.622223,   20.6886749
    995,    172.06192,    22.140995
    996,   172.347397,   23.5698471
    997,   161.523743,   12.5948715
    998,   161.573761,    11.275732
    999,   161.600174,   9.92026138
   1000,   161.603333,   8.53671741
   1001,   161.591599,   7.13930082
   1002,   161.568878,   5.72631884
   1003,   161.540115,   4.30480289
   1004,   161.513367,    2.8753109
   1005,   161.491043,    1.4400959
   1006,   162.988525,   12.9041691
   1007,   163.055862,   11.5592899
   1008,   163.096451,   10.1665955
   1009,   163.118515,   8.74559116
   1010,   163.129013,   7.30791283
   1011,   163.131897,   5.85821867
   1012,    163.12973,   4.40091228
   1013,   163.125214,   2.93795514
   1014,   163.118286,   1.47067428
   1015,   164.504761,   13.3001356
   1016,   164.577652,   11.8884296
   1017,   164.622009,   10.4401751
   1018,   164.652313,   8.97224903
   1019,    164.67569,   7.49185085
   1020,   164.694794,   6.00260258
   1021,   164.710022,   4.50728703
   1022,   164.720901,   3.00762987
   1023,   164.725723,   1.50479889
   1024,   166.091461,   13.7631168
   1025,   166.145798,   12.2343283
   1026,   166.177704,   10.7132511
   1027,   166.204681,   9.19404507
   1028,   166.232391,   7.67137814
   1029,   166.260498,    6.1438055
   1030,   166.286621,   4.61192369
   1031,   166.308105,   3.07669353
   1032,   166.322021,   1.53898072
   1033,     169.5112,   1.59873223
   1034,   171.106445,   1.61404538
   1035,   172.705093,   1.62210369
   1036,   174.306473,   1.62503314
   1037,    175.90979,   1.62468529
   1038,   177.514328,   1.62240505
   1039,   179.119598,   1.61905789
   1040,   180.725281,   1.61515355
   1041,   182.331207,   1.61097169
   1042,   183.937225,   1.60665703
   1043,    185.54332,   1.60228086
   1044,   187.149414,   1.59787726
   1045,   188.755539,   1.59346199
   1046,   190.361664,   1.58904147
   1047,   191.967804,   1.58462048
   1048,   193.573944,   1.58022475
   1049,    195.18013,   1.57599568
   1050,   196.786453,   1.57231545
   1051,   198.393036,     1.569754
   1052,   169.482849,   3.19461441
   1053,   171.076187,    3.2255578
   1054,   172.674454,   3.24226284
   1055,   174.276428,    3.2487247
   1056,   175.880951,   3.24851799
   1057,   177.487061,   3.24430132
   1058,   179.094116,   3.23782611
   1059,   180.701706,   3.23014688
   1060,    182.30957,   3.22185493
   1061,   183.917572,   3.21326351
   1062,   185.525665,   3.20453095
   1063,   187.133759,   3.19573402
   1064,   188.741882,   3.18690872
   1065,   190.350021,   3.17807102
   1066,    191.95816,   3.16923285
   1067,   193.566315,   3.16046429
   1068,     195.1745,   3.15208387
   1069,   196.782776,    3.1448667
   1070,   198.391235,   3.13989639
   1071,   169.446411,   4.78828335
   1072,   171.037689,   4.83511448
   1073,    172.63559,   4.86084557
   1074,   174.238342,   4.87123108
   1075,   175.844391,   4.87149763
   1076,   177.452484,   4.86559391
   1077,   179.061783,   4.85616207
   1078,   180.671753,   4.84481907
   1079,   182.282104,   4.83248711
   1080,   183.892609,     4.819664
   1081,   185.503204,   4.80660534
   1082,   187.113861,   4.79343748
   1083,   188.724518,   4.78022003
   1084,   190.335205,   4.76698065
   1085,   191.945892,   4.75374317
   1086,   193.556595,   4.74063206
   1087,   195.167297,   4.72816277
   1088,   196.778076,   4.71750593
   1089,   198.388962,   4.71022654
   1090,   169.406357,   6.37964725
   1091,   170.996109,   6.44252872
   1092,   172.594086,   6.47744846
   1093,   174.197968,   6.49193764
   1094,   175.805771,   6.49286556
   1095,   177.416046,    6.4854517
   1096,   179.027771,   6.47321796
   1097,   180.640289,   6.45834255
   1098,    182.25325,   6.44208336
   1099,   183.866409,   6.42512751
   1100,   185.479691,   6.40783262
   1101,   187.093048,     6.390378
   1102,    188.70639,   6.37284994
   1103,   190.319748,   6.35528898
   1104,   191.933136,   6.33773232
   1105,   193.546539,   6.32036638
   1106,   195.159927,   6.30391359
   1107,   196.773315,    6.2899437
   1108,   198.386719,   6.28046513
   1109,    169.36908,   7.96792889
   1110,   170.959473,   8.04656887
   1111,    172.55896,   8.09028149
   1112,   174.164719,   8.10862064
   1113,   175.774536,    8.1101532
   1114,   177.386871,    8.1013279
   1115,   179.000702,   8.08648682
   1116,   180.615356,   8.06832314
   1117,   182.230469,   8.04840088
   1118,    183.84581,   8.02758408
   1119,   185.461288,   8.00632477
   1120,   187.076813,   7.98485565
   1121,   188.692368,   7.96328831
   1122,   190.307938,   7.94167614
   1123,   191.923523,    7.9200716
   1124,   193.539093,   7.89872646
   1125,   195.154663,   7.87858105
   1126,   196.770142,   7.86158848
   1127,   198.385345,   7.85013103
   1128,   169.345062,   9.55290985
   1129,   170.940582,   9.64605904
   1130,   172.544647,   9.69674492
   1131,   174.153748,   9.71753311
   1132,   175.765747,   9.71897125
   1133,   177.377228,   9.70962143
   1134,   178.992691,   9.69215012
   1135,   180.609177,   9.67070961
   1136,   182.225647,   9.64740658
   1137,   183.841949,   9.62320709
   1138,    185.45816,    9.5985651
   1139,   187.074356,   9.57370663
   1140,   188.690536,    9.5487442
   1141,   190.306702,   9.52373219
   1142,   191.922882,   9.49873161
   1143,   193.539047,    9.4740715
   1144,   195.155121,   9.45090485
   1145,   196.770874,   9.43152523
   1146,   198.385986,   9.41854858
   1147,   169.345642,   11.1403275
   1148,   170.955688,   11.2425432
   1149,   172.569183,   11.2950535
   1150,   174.182938,   11.3150091
   1151,   175.787994,   11.3189373
   1152,   177.403015,   11.3057919
   1153,   179.020813,    11.284626
   1154,   180.637878,   11.2600346
   1155,   182.253555,   11.2340069
   1156,   183.868668,   11.2072096
   1157,     185.4832,     11.18011
   1158,   187.097305,   11.1529093
   1159,   188.711166,   11.1256733
   1160,    190.32489,   11.0984211
   1161,   191.938568,    11.071209
   1162,   193.552124,   11.0444326
   1163,   195.165451,   11.0194588
   1164,   196.778198,   10.9987736
   1165,   198.389893,   10.9849987
   1166,   169.382309,   12.7458344
   1167,    171.01886,   12.8437061
   1168,    172.64505,   12.8880367
   1169,   174.255157,   12.9051857
   1170,   175.865509,   12.9015837
   1171,   177.480835,    12.884182
   1172,   179.097687,   12.8598051
   1173,    180.71167,   12.8330307
   1174,   182.323517,   12.8052359
   1175,   183.935333,   12.7766123
   1176,   185.546478,   12.7477694
   1177,   187.155655,   12.7193241
   1178,   188.763367,   12.6912174
   1179,   190.370361,   12.6632919
   1180,   191.976974,   12.6355152
   1181,   193.583313,   12.6083393
   1182,   195.189209,   12.5832376
   1183,   196.794312,   12.5626335
   1184,   198.398102,   12.5489216
   1185,   169.457581,   14.4052267
   1186,   171.133286,   14.4660892
   1187,   172.768738,   14.4853039
   1188,   174.381378,    14.485673
   1189,   175.989441,   14.4725075
   1190,   177.601501,   14.4495163
   1191,   179.216492,   14.4210348
   1192,   180.824097,    14.392622
   1193,    182.42868,   14.3639946
   1194,   184.038452,   14.3331718
   1195,   185.650818,   14.3013515
   1196,   187.254059,   14.2721424
   1197,   188.851776,   14.2445288
   1198,   190.447037,    14.217639
   1199,   192.041214,    14.191164
   1200,   193.634827,   14.1655159
   1201,   195.227875,    14.142067
   1202,   196.820068,   14.1229296
   1203,    198.41095,   14.1101246
   1204,   168.051987,   33.6040878
   1205,   168.274521,   52.0653229
   1206,   168.243866,   50.5387344
   1207,   168.210632,   49.0295029
   1208,   168.175827,   47.5314827
   1209,    168.14061,   46.0393143
   1210,   168.105453,   44.5478821
   1211,   168.061401,   43.0310669
   1212,   168.028503,   41.5356255
   1213,   168.015274,   40.0641518
   1214,   168.012268,   38.5844193
   1215,   168.022217,   37.0742912
   1216,   168.046509,   35.4759674
   1217,   169.984329,   33.6632614
   1218,   171.656311,    33.686882
   1219,   173.251556,   33.7109375
   1220,   174.822098,   33.7427826
   1221,   176.388184,   33.7820892
   1222,    177.95343,   33.8249664
   1223,   179.536163,   33.8737144
   1224,   181.112778,    33.920845
   1225,   182.694733,   33.9692841
   1226,   184.270691,   34.0159683
   1227,    185.84462,   34.0620193
   1228,   187.417786,   34.1078377
   1229,   188.990616,   34.1535492
   1230,   190.563309,   34.1991806
   1231,   192.136017,   34.2446213
   1232,   193.708801,   34.2893143
   1233,   195.281677,    34.331543
   1234,   196.854614,   34.3679123
   1235,   198.427521,   34.3934975
   1236,   160.414093,   36.0898895
   1237,   161.794815,     35.95364
   1238,   163.221603,   35.6394997
   1239,   164.699631,   35.1520271
   1240,   166.269836,    34.479847
   1241,   171.133987,   26.3307152
   1242,   170.872284,   27.6689968
   1243,   170.431366,   29.0474129
   1244,   169.828278,   30.4303589
   1245,   169.048447,   31.9077854
   1246,   198.411346,   35.9595833
   1247,   198.401367,   37.5281906
   1248,   198.396164,   39.0994225
   1249,   198.394348,   40.6727371
   1250,   198.394684,   42.2475052
   1251,   198.396301,    43.823204
   1252,   198.398621,   45.3994446
   1253,   198.401306,   46.9759789
   1254,   198.404175,   48.5523224
   1255,   198.407059,   50.1274643
   1256,   198.409714,   51.7002716
   1257,   198.411987,   53.2699089
   1258,   196.823578,    35.928154
   1259,   196.803848,    37.493248
   1260,   196.793304,   39.0621338
   1261,   196.789429,   40.6338005
   1262,   196.789856,   42.2073441
   1263,   196.792908,   43.7820663
   1264,   196.797424,   45.3574753
   1265,   196.802734,   46.9332428
   1266,   196.808395,   48.5089073
   1267,   196.814087,   50.0837479
   1268,   196.819366,   51.6572266
   1269,   196.823822,   53.2293701
   1270,   195.236176,   35.8869896
   1271,   195.206894,   37.4482765
   1272,    195.19104,   39.0143318
   1273,   195.184967,   40.5839081
   1274,   195.185364,   42.1558609
   1275,   195.189728,   43.7293091
   1276,    195.19635,   45.3036346
   1277,   195.204208,   46.8784256
   1278,   195.212646,   48.4532738
   1279,     195.2211,   50.0278397
   1280,   195.228958,   51.6022644
   1281,   195.235626,   53.1773262
   1282,   193.648972,   35.8400307
   1283,   193.610245,   37.3973236
   1284,   193.589081,   38.9602661
   1285,   193.580765,   40.5274811
   1286,   193.581055,   42.0976181
   1287,    193.58667,   43.6696053
   1288,   193.595352,   45.2426834
   1289,   193.605728,   46.8163643
   1290,   193.616913,   48.3903198
   1291,   193.628113,   49.9645729
   1292,   193.638519,   51.5399246
   1293,   193.647369,   53.1177826
   1294,   192.061859,   35.7901459
   1295,   192.013763,   37.3431549
   1296,   191.987274,    38.902771
   1297,    191.97673,   40.4674568
   1298,   191.976883,   42.0356407
   1299,   191.983688,   43.6060562
   1300,   191.994415,   45.1777954
   1301,   192.007294,   46.7502823
   1302,   192.021179,   48.3232765
   1303,   192.035141,   49.8971672
   1304,    192.04808,    51.473381
   1305,   192.059113,    53.053936
   1306,   190.474823,   35.7389679
   1307,   190.417328,   37.2874146
   1308,   190.385529,   38.8435402
   1309,   190.372742,   40.4055748
   1310,   190.372742,   41.9717178
   1311,   190.380768,   43.5404892
   1312,   190.393509,    45.110836
   1313,   190.408875,   46.6820908
   1314,   190.425476,   48.2540817
   1315,   190.442184,   49.8275642
   1316,   190.457657,   51.4046135
   1317,   190.470856,   52.9878387
   1318,   188.887787,   35.6872711
   1319,   188.820923,   37.2309608
   1320,   188.783844,   38.7834702
   1321,   188.768799,   40.3427811
   1322,   188.768631,   41.9068298
   1323,   188.777863,   43.4739227
   1324,   188.792603,   45.0428429
   1325,   188.810455,   46.6128426
   1326,   188.829788,   48.1838112
   1327,   188.849228,   49.7568665
   1328,   188.867233,   51.3347206
   1329,   188.882599,   52.9206238
   1330,    187.30069,   35.6353569
   1331,   187.224487,   37.1741943
   1332,   187.182159,   38.7230225
   1333,   187.164871,   40.2795639
   1334,   187.164551,   41.8414879
   1335,   187.174957,   43.4068756
   1336,   187.191711,   44.9743576
   1337,   187.212051,    46.543087
   1338,     187.2341,   48.1130219
   1339,   187.256256,   49.6856308
   1340,   187.276794,   51.2642822
   1341,   187.294327,   52.8528748
   1342,   185.713455,   35.5833206
   1343,   185.628021,   37.1172791
   1344,   185.580444,   38.6624069
   1345,   185.560928,   40.2161598
   1346,   185.560486,   41.7759399
   1347,   185.572083,   43.3396072
   1348,   185.590851,   44.9056358
   1349,   185.613663,   46.4730911
   1350,   185.638412,   48.0419846
   1351,     185.6633,   49.6141434
   1352,   185.686386,   51.1935806
   1353,   185.706055,    52.784874
   1354,   184.125763,   35.5311241
   1355,   184.031311,   37.0602493
   1356,   183.978638,   38.6016922
   1357,    183.95697,   40.1526566
   1358,   183.956406,   41.7102928
   1359,   183.969208,   43.2722397
   1360,   183.989975,   44.8368149
   1361,   184.015259,   46.4029922
   1362,   184.042725,   47.9708405
   1363,   184.070343,   49.5425415
   1364,   184.095947,   51.1227722
   1365,   184.117798,   52.7167625
   1366,   182.516678,   35.4731827
   1367,   182.426727,   37.0010529
   1368,   182.373962,   38.5401535
   1369,    182.35199,   40.0888329
   1370,   182.351959,   41.6445084
   1371,    182.36618,   43.2048035
   1372,   182.389053,   44.7679367
   1373,    182.41684,     46.33284
   1374,   182.447021,   47.8996391
   1375,   182.477386,   49.4708939
   1376,   182.505524,   51.0519066
   1377,   182.529526,   52.6485901
   1378,   180.934738,   35.4223137
   1379,   180.828156,   36.9434052
   1380,   180.770218,   38.4788437
   1381,   180.746948,   40.0249939
   1382,   180.747375,   41.5786896
   1383,   180.763092,   43.1373444
   1384,   180.788116,   44.6990585
   1385,   180.818436,   46.2626877
   1386,   180.851334,   47.8284416
   1387,    180.88443,    49.399231
   1388,     180.9151,   50.9810257
   1389,   180.941284,   52.5803795
   1390,   179.308395,   35.3596535
   1391,   179.218353,   36.8828812
   1392,   179.163513,   38.4169769
   1393,   179.141083,    39.961235
   1394,   179.142609,   41.5131378
   1395,   179.160019,   43.0702019
   1396,   179.187225,   44.6304855
   1397,   179.220108,   46.1928177
   1398,   179.255737,   47.7574844
   1399,   179.291534,   49.3277702
   1400,   179.324738,   50.9102859
   1401,   179.353073,   52.5122223
   1402,   177.743347,   35.3139343
   1403,   177.624176,   36.8278046
   1404,   177.561066,   38.3579178
   1405,   177.536682,    39.899704
   1406,   177.538605,    41.449646
   1407,   177.557571,   43.0049744
   1408,   177.586945,   44.5636444
   1409,   177.622314,   46.1244545
   1410,   177.660599,   47.6878128
   1411,   177.699051,   49.2573471
   1412,    177.73468,   50.8403053
   1413,   177.765091,   52.4444771
   1414,   176.167908,   35.2690468
   1415,   176.033417,   36.7789917
   1416,   175.962387,   38.3061829
   1417,   175.935272,   39.8455353
   1418,   175.937164,    41.393158
   1419,   175.957397,   42.9461555
   1420,   175.988663,   44.5024948
   1421,    176.02626,   46.0610008
   1422,   176.066925,      47.6222
   1423,   176.107727,   49.1901169
   1424,   176.145493,   50.7726059
   1425,   176.177734,    52.378006
   1426,   174.588867,   35.2334137
   1427,   174.444412,   36.7450066
   1428,   174.367966,   38.2715302
   1429,   174.338867,   39.8085594
   1430,   174.340851,   41.3530235
   1431,   174.362137,    42.902298
   1432,   174.394882,   44.4545441
   1433,   174.434113,   46.0087852
   1434,   174.476471,   47.5657806
   1435,   174.518906,   49.1299591
   1436,   174.558121,   50.7098389
   1437,   174.591919,   52.3127823
   1438,   173.005295,   35.2182236
   1439,   172.855988,   36.7395782
   1440,   172.778351,   38.2683296
   1441,   172.749741,   39.8029175
   1442,   172.752655,   41.3420639
   1443,   172.775024,    42.884903
   1444,    172.80864,   44.4298172
   1445,   172.848541,   45.9761887
   1446,   172.891418,   47.5252113
   1447,   172.934204,   49.0819473
   1448,   172.973999,   50.6537399
   1449,   173.008972,   52.2463608
   1450,   171.405289,   35.2365265
   1451,   171.263199,    36.780262
   1452,   171.192825,   38.3136978
   1453,   171.167877,   39.8406677
   1454,   171.174515,   41.3723793
   1455,   171.198517,   42.9047661
   1456,   171.232452,    44.437706
   1457,   171.271759,    45.971035
   1458,   171.313461,   47.5069046
   1459,   171.354996,   49.0501328
   1460,   171.393585,   50.6095505
   1461,   171.427872,   52.1891518
   1462,   169.766144,   35.3093262
   1463,   169.658813,   36.8889923
   1464,   169.608856,   38.4217377
   1465,   169.595963,   39.9379158
   1466,   169.605225,   41.4475594
   1467,   169.630859,   42.9615097
   1468,   169.666595,   44.4816132
   1469,    169.70433,   45.9973297
   1470,   169.743088,    47.514225
   1471,   169.781342,   49.0382538
   1472,   169.817108,   50.5777588
   1473,   169.849457,   52.1358147
   1474,   166.702637,   52.0109291
   1475,   165.129333,   51.9849854
   1476,   163.556503,   51.9492035
   1477,   161.983307,   51.9025002
   1478,   160.408371,   51.8527489
   1479,   166.676605,   50.5268211
   1480,   165.110901,   50.5265045
   1481,   163.545074,   50.5237732
   1482,   161.977875,   50.5119591
   1483,   160.408539,   50.4887009
   1484,   166.649551,   49.0531731
   1485,   165.091278,   49.0857315
   1486,    163.53273,   49.1164627
   1487,   161.972229,   49.1383972
   1488,    160.40947,   49.1495171
   1489,   166.621643,   47.5879669
   1490,   165.070999,   47.6547432
   1491,   163.519974,   47.7195015
   1492,   161.966522,    47.774868
   1493,   160.410614,   47.8199158
   1494,    166.59343,   46.1278992
   1495,   165.050476,   46.2290955
   1496,    163.50705,   46.3280869
   1497,   161.960815,   46.4166069
   1498,   160.422974,   46.4365349
   1499,   166.564957,    44.669075
   1500,   165.029678,   44.8055344
   1501,   163.493942,   44.9393082
   1502,   161.954987,   45.0610046
   1503,   160.425537,   45.1029396
   1504,   166.534439,    43.204628
   1505,   165.008087,   43.3818207
   1506,   163.480103,   43.5520821
   1507,   161.948425,   43.7073212
   1508,   160.428101,   43.7689629
   1509,   166.505402,   41.7434273
   1510,   164.985535,   41.9606094
   1511,    163.46434,   42.1682167
   1512,   161.941055,   42.3507957
   1513,   160.430084,   42.4369392
   1514,   166.483475,   40.2962189
   1515,   164.962311,   40.5493774
   1516,   163.445068,   40.7916183
   1517,   161.933456,    40.981987
   1518,   160.429626,   41.1241302
   1519,   166.463379,   38.8540268
   1520,   164.933746,    39.150795
   1521,   163.419022,   39.4257202
   1522,    161.91748,   39.6471825
   1523,   160.426086,   39.8259125
   1524,   166.438293,   37.4073906
   1525,   164.892288,   37.7692909
   1526,     163.3797,   38.0918579
   1527,   161.891327,    38.347847
   1528,   160.416779,   38.5528488
   1529,   166.393143,   35.9457855
   1530,   164.825302,   36.4211082
   1531,   163.319489,   36.8129883
   1532,   161.853607,   37.0956993
   1533,   160.408783,   37.2683144
   1534,   172.387512,   26.3904762
   1535,   173.744995,   26.4261436
   1536,   175.207962,   26.4556332
   1537,   176.645386,   26.4652748
   1538,   178.149475,   26.4769974
   1539,   179.631729,    26.486536
   1540,   181.107437,   26.4948463
   1541,   182.565842,   26.5019035
   1542,    184.01973,   26.5084972
   1543,   185.472137,    26.514904
   1544,   186.922592,   26.5212326
   1545,   188.367325,   26.5275192
   1546,   189.793732,   26.5337734
   1547,   191.226532,   26.5404396
   1548,   192.667908,   26.5474815
   1549,   194.117035,   26.5548935
   1550,   195.580505,   26.5623856
   1551,   197.051056,   26.5692959
   1552,   198.524536,   26.5745735
   1553,   172.105133,   27.7799377
   1554,   173.449585,     27.84935
   1555,   174.875595,   27.8952389
   1556,   176.328522,   27.9241333
   1557,    177.81073,   27.9461327
   1558,   179.296387,   27.9641781
   1559,   180.781616,   27.9800491
   1560,   182.262543,   27.9946289
   1561,   183.741272,   28.0085583
   1562,   185.218842,   28.0221825
   1563,   186.694763,   28.0356636
   1564,   188.167191,   28.0490837
   1565,   189.633942,   28.0625153
   1566,   191.101868,   28.0761051
   1567,   192.573685,   28.0898819
   1568,    194.05014,   28.1037884
   1569,   195.532593,   28.1173897
   1570,   197.019241,   28.1294384
   1571,   198.508514,   28.1380692
   1572,    171.68161,   29.1809654
   1573,   173.044739,   29.2712002
   1574,    174.47847,   29.3309765
   1575,    175.94873,    29.372364
   1576,   177.441452,   29.4042702
   1577,   178.942352,    29.431015
   1578,   180.446442,   29.4551353
   1579,   181.951218,   29.4779778
   1580,   183.455673,   29.5000935
   1581,   184.959518,   29.5217972
   1582,   186.462341,   29.5432892
   1583,   187.963379,    29.564682
   1584,   189.462418,   29.5860558
   1585,   190.961578,   29.6074829
   1586,   192.462372,   29.6289864
   1587,   193.965454,   29.6504307
   1588,   195.471237,   29.6710033
   1589,   196.979263,   29.6887589
   1590,   198.488937,   29.7011032
   1591,   171.153229,   30.6029415
   1592,   172.576538,   30.7062263
   1593,   174.050446,   30.7722855
   1594,   175.551697,   30.8199692
   1595,   177.066345,   30.8583908
   1596,   178.589111,    30.892643
   1597,   180.117157,   30.9250641
   1598,   181.647705,   30.9566002
   1599,   183.178253,    30.987381
   1600,   184.708099,   31.0176334
   1601,   186.237091,   31.0475807
   1602,   187.765106,   31.0773773
   1603,   189.292252,    31.107111
   1604,    190.81929,   31.1368427
   1605,   192.346954,   31.1665726
   1606,    193.87561,   31.1959763
   1607,   195.405457,   31.2237606
   1608,   196.936325,    31.247364
   1609,   198.467957,    31.263649
   1610,   170.564438,   32.0870667
   1611,   172.101212,   32.1773071
   1612,   173.638275,   32.2336197
   1613,   175.175888,   32.2776833
   1614,    176.71759,   32.3181496
   1615,   178.263626,   32.3575821
   1616,   179.817444,   32.3978271
   1617,   181.371887,   32.4374161
   1618,   182.927399,    32.476799
   1619,   184.481262,   32.5154724
   1620,   186.033844,    32.553688
   1621,   187.585571,   32.5916786
   1622,   189.136734,   32.6295624
   1623,   190.687744,   32.6673927
   1624,   192.238953,   32.7050858
   1625,   193.790527,   32.7420502
   1626,   195.342575,   32.7765846
   1627,   196.895004,   32.8057251
   1628,   198.447632,   32.8259621
   1629,   155.162323,    14.507823
   1630,   154.624542,   13.0924892
   1631,   154.099731,   11.6447945
   1632,   153.591309,   10.1870661
   1633,   153.092468,   8.72843266
   1634,   152.604767,   7.27142525
   1635,   152.134827,   5.81612062
   1636,   151.681503,   4.36170626
   1637,     151.3181,   2.90704823
   1638,   151.176025,   1.45436156
   1639,   156.121323,   14.1992378
   1640,   155.718384,   12.8304749
   1641,   155.308197,   11.4283295
   1642,   154.899246,   10.0096579
   1643,   154.492645,   8.58373451
   1644,   154.091125,     7.154953
   1645,    153.70282,   5.72517109
   1646,   153.328613,   4.29392385
   1647,    153.04248,   2.86327267
   1648,   152.873428,   1.43236125
   1649,   157.094849,   13.9578171
   1650,   156.796417,   12.6218185
   1651,   156.494171,   11.2537155
   1652,   156.189484,   9.86652565
   1653,   155.882477,    8.4680109
   1654,   155.575531,   7.06296682
   1655,   155.276596,   5.65430689
   1656,   154.996307,   4.24273062
   1657,   154.777832,   2.83020639
   1658,   154.644547,    1.4163965
   1659,   158.074005,   13.7862196
   1660,   157.879822,   12.4748869
   1661,   157.686188,   11.1341095
   1662,   157.486237,   9.77212048
   1663,   157.278122,    8.3945055
   1664,   157.064789,   7.00792885
   1665,    156.85434,    5.6137886
   1666,   156.658661,   4.21474218
   1667,   156.502472,   2.81294417
   1668,   156.404449,   1.40841401
   1669,   159.065994,   13.6865959
   1670,   158.984406,   12.3943768
   1671,    158.89801,   11.0706444
   1672,   158.800476,   9.72698021
   1673,    158.68605,    8.3640213
   1674,   158.560699,   6.99187469
   1675,   158.430206,   5.60672617
   1676,   158.304871,   4.21442318
   1677,   158.202789,   2.81495714
   1678,   158.137573,    1.4100765
   1679,   167.200455,   65.6218719
   1680,   166.738312,   55.1629333
   1681,   166.753006,   56.8234596
   1682,    166.78038,   58.4887314
   1683,    166.83017,   60.1606674
   1684,   166.909561,   61.8546638
   1685,   167.042709,   63.6122818
   1686,   165.243683,   64.7949982
   1687,    163.52713,   64.2339859
   1688,   161.906494,   63.8830032
   1689,   160.328262,   63.7357178
   1690,    198.47287,   65.7426147
   1691,   196.946442,   65.7352448
   1692,   195.420227,   65.7248383
   1693,   193.894089,   65.7125015
   1694,   192.367996,   65.6991806
   1695,   190.841934,   65.6854553
   1696,   189.315918,   65.6715775
   1697,   187.789886,   65.6576385
   1698,   186.263824,   65.6436844
   1699,   184.737671,   65.6297379
   1700,   183.202713,   65.6188507
   1701,   181.623291,    65.623642
   1702,   180.092102,   65.6111298
   1703,   178.583939,   65.5897522
   1704,   177.060608,   65.5725403
   1705,   175.468079,   65.5802002
   1706,   173.940247,   65.5608215
   1707,   172.449524,    65.525116
   1708,   170.879868,   65.5146103
   1709,   169.198044,   65.5332947
   1710,   171.030304,   73.5347519
   1711,    170.69577,   72.0612564
   1712,   170.148621,   70.5494461
   1713,   169.392548,   69.0095978
   1714,   168.417374,   67.4135742
   1715,   160.303864,   62.4278107
   1716,    160.29364,   60.9544258
   1717,   160.312927,   59.3994522
   1718,   160.335693,   57.8335114
   1719,   160.347076,   56.3023758
   1720,   160.372742,   54.7720413
   1721,   161.932632,   62.5528297
   1722,   161.939819,   61.0893707
   1723,   161.946869,   59.5500412
   1724,    161.95488,   57.9820518
   1725,   161.961411,   56.4181366
   1726,    161.97197,   54.8648643
   1727,   163.577072,   62.8245697
   1728,   163.582718,   61.3081474
   1729,   163.575867,   59.7372551
   1730,   163.569214,   58.1433449
   1731,    163.56517,   56.5502357
   1732,   163.564438,   54.9689026
   1733,   165.275192,   63.2037048
   1734,   165.242599,   61.5796242
   1735,   165.206696,   59.9484482
   1736,   165.179916,   58.3156128
   1737,   165.163162,   56.6868668
   1738,   165.152802,   55.0742645
   1739,   168.318939,   55.2732887
   1740,   169.899277,   55.3721008
   1741,   171.480988,   55.4518127
   1742,   173.063416,   55.5226746
   1743,   174.645813,   55.5928421
   1744,   176.229462,   55.6557312
   1745,   177.813782,   55.7154121
   1746,   179.398407,    55.773777
   1747,   180.983109,   55.8315239
   1748,   182.567886,   55.8889694
   1749,   184.152679,   55.9462662
   1750,   185.737457,    56.003479
   1751,   187.322266,   56.0606308
   1752,   188.907043,   56.1177139
   1753,   190.491852,   56.1746292
   1754,    192.07663,    56.231102
   1755,   193.661438,   56.2862129
   1756,   195.246216,    56.337471
   1757,   196.830948,   56.3802757
   1758,   198.415573,   56.4086266
   1759,    168.34053,   56.9492111
   1760,    169.92569,   57.0552292
   1761,   171.510223,   57.1405945
   1762,   173.093277,   57.2119522
   1763,   174.676239,   57.2747803
   1764,   176.259277,   57.3310471
   1765,   177.842239,   57.3835068
   1766,   179.425125,   57.4339752
   1767,    181.00795,   57.4834251
   1768,   182.590759,   57.5323677
   1769,   184.173553,   57.5810623
   1770,   185.756348,   57.6296272
   1771,   187.339142,   57.6781235
   1772,   188.921936,   57.7265701
   1773,    190.50473,   57.7749252
   1774,   192.087524,    57.822998
   1775,   193.670319,   57.8699036
   1776,   195.253082,   57.9131775
   1777,   196.835739,   57.9485245
   1778,   198.418137,   57.9710464
   1779,   168.379089,   58.6339874
   1780,   169.974213,    58.747673
   1781,   171.560394,   58.8372498
   1782,   173.146133,   58.9056587
   1783,   174.730438,   58.9613266
   1784,   176.312805,   59.0095673
   1785,   177.893646,   59.0536385
   1786,   179.473602,   59.0954361
   1787,   181.053085,   59.1360207
   1788,   182.632355,    59.175972
   1789,   184.211533,   59.2155991
   1790,    185.79068,   59.2550621
   1791,   187.369812,   59.2944412
   1792,   188.948944,   59.3337784
   1793,   190.528076,   59.3730621
   1794,   192.107208,   59.4121513
   1795,    193.68634,   59.4502563
   1796,   195.265411,   59.4852219
   1797,   196.844254,   59.5134583
   1798,   198.422592,   59.5311432
   1799,   168.450302,   60.3269539
   1800,   170.055405,   60.4489594
   1801,   171.656128,   60.5314255
   1802,   173.247986,   60.5912933
   1803,   174.832336,   60.6382828
   1804,   176.411148,    60.678112
   1805,   177.986816,    60.713829
   1806,   179.561401,   60.7469978
   1807,   181.134979,   60.7789764
   1808,    182.70787,   60.8103752
   1809,   184.280441,   60.8414764
   1810,   185.852859,   60.8724213
   1811,   187.425232,   60.9032822
   1812,   188.997589,   60.9341049
   1813,   190.569946,   60.9648933
   1814,   192.142303,    60.995533
   1815,   193.714661,   61.0253754
   1816,   195.286896,   61.0526657
   1817,   196.858841,   61.0745773
   1818,   198.430069,   61.0881767
   1819,   168.558777,   62.0473366
   1820,   170.217133,   62.1427536
   1821,   171.831818,   62.2098541
   1822,   173.422226,   62.2587051
   1823,   174.998444,   62.2969971
   1824,   176.567474,   62.3289032
   1825,   178.133209,   62.3568954
   1826,   179.700134,    62.381588
   1827,   181.264465,   62.4057159
   1828,   182.829056,   62.4289589
   1829,   184.391754,   62.4524727
   1830,   185.953476,   62.4761353
   1831,   187.514801,    62.499836
   1832,   189.076004,   62.5235367
   1833,   190.637177,   62.5472183
   1834,   192.198349,   62.5707779
   1835,   193.759521,   62.5936813
   1836,   195.320572,   62.6145668
   1837,   196.881317,   62.6313324
   1838,   198.441345,   62.6417542
   1839,   168.815598,   63.7587433
   1840,   170.495056,    63.826088
   1841,    172.10466,   63.8707542
   1842,   173.667099,   63.9099388
   1843,    175.20816,    63.946312
   1844,   176.785355,   63.9601669
   1845,   178.342346,   63.9784927
   1846,   179.888474,   63.9987564
   1847,   181.438187,   64.0165863
   1848,     182.9991,   64.0298615
   1849,   184.550781,   64.0461044
   1850,   186.097565,   64.0639267
   1851,   187.642975,   64.0821686
   1852,   189.188019,   64.1004868
   1853,   190.732941,   64.1188049
   1854,   192.277847,   64.1369781
   1855,   193.822784,   64.1545563
   1856,   195.367661,   64.1705627
   1857,   196.912354,   64.1835175
   1858,   198.456635,    64.191803
   1859,   198.498001,   67.2853851
   1860,   198.526093,   68.8268967
   1861,   198.553452,   70.3694839
   1862,   198.575668,   71.9154358
   1863,   198.588669,    73.466156
   1864,    196.99675,   67.2788544
   1865,   197.052307,   68.8211899
   1866,   197.106049,   70.3649292
   1867,   197.150223,   71.9123535
   1868,   197.177719,   73.4645462
   1869,   195.495804,   67.2700653
   1870,   195.578537,   68.8136749
   1871,   195.658905,   70.3588409
   1872,   195.727341,   71.9078217
   1873,   195.774658,   73.4614182
   1874,    193.99498,   67.2598267
   1875,   194.105133,   68.8049774
   1876,    194.21376,   70.3515854
   1877,   194.311554,   71.9018402
   1878,   194.390472,   73.4560852
   1879,   192.494293,   67.2487793
   1880,   192.632355,   68.7955475
   1881,   192.771027,   70.3435669
   1882,   192.903687,   71.8948212
   1883,   193.032867,   73.4484558
   1884,   190.993683,   67.2373352
   1885,   191.159683,   68.7857819
   1886,   191.327972,   70.3353882
   1887,   191.491913,   71.8883514
   1888,   191.652802,    73.444046
   1889,   189.493103,   67.2257156
   1890,    189.68689,   68.7758789
   1891,   189.884064,     70.32724
   1892,   190.077133,    71.882309
   1893,   190.265884,   73.4406281
   1894,   187.992493,   67.2140274
   1895,   188.213989,   68.7659149
   1896,   188.439575,   70.3191223
   1897,   188.660812,   71.8764572
   1898,   188.876709,   73.4375305
   1899,   186.491882,   67.2023087
   1900,   186.740967,   68.7559509
   1901,   186.994751,   70.3110352
   1902,   187.243805,    71.870697
   1903,    187.48674,   73.4345398
   1904,   184.991241,    67.190567
   1905,   185.267883,   68.7459641
   1906,   185.549774,   70.3029633
   1907,   185.826508,    71.864975
   1908,   186.096466,   73.4315872
   1909,   183.486328,   67.1803131
   1910,   183.793213,   68.7365189
   1911,   184.104218,   70.2950592
   1912,   184.408936,    71.859314
   1913,   184.706039,   73.4286652
   1914,   181.969391,   67.1742554
   1915,    182.31488,   68.7283325
   1916,   182.657455,   70.2875595
   1917,   182.990967,   71.8537903
   1918,   183.315475,   73.4257965
   1919,   180.459122,   67.1657257
   1920,   180.836655,   68.7200699
   1921,   181.210251,   70.2802429
   1922,   181.572739,   71.8484192
   1923,   181.924805,   73.4230194
   1924,   178.959106,   67.1532669
   1925,   179.361755,   68.7107391
   1926,   179.764099,   70.2729416
   1927,   180.154968,   71.8433838
   1928,   180.534409,    73.420517
   1929,   177.459015,   67.1408386
   1930,   177.888794,   68.7018204
   1931,   178.319809,   70.2667542
   1932,   178.738754,   71.8395996
   1933,   179.118973,   73.4197235
   1934,   175.943146,   67.1358185
   1935,   176.414795,    68.697197
   1936,   176.878616,   70.2644882
   1937,   177.317474,   71.8394623
   1938,   177.695831,   73.4212036
   1939,   174.441132,   67.1299286
   1940,   174.948761,   68.6989136
   1941,   175.443909,   70.2702026
   1942,   175.898941,   71.8462372
   1943,   176.195587,   73.4284515
   1944,   172.954147,    67.128891
   1945,   173.497864,   68.7142334
   1946,   174.026581,   70.2909698
   1947,   174.498047,   71.8652039
   1948,    174.80899,   73.4382477
   1949,   171.452209,   67.1556473
   1950,   172.066437,    68.758667
   1951,   172.644958,   70.3380356
   1952,   173.137665,   71.9036865
   1953,   173.469437,   73.4564056
   1954,   169.934021,   67.2355957
   1955,   170.681458,   68.8536224
   1956,   171.334641,    70.424942
   1957,   171.852844,   71.9694366
   1958,   172.192505,   73.4888611
   1959,   148.897766,   28.8303337
   1960,   145.204498,    49.627243
   1961,   145.476303,   47.9339066
   1962,    145.74176,   46.2355194
   1963,    146.00473,   44.5326042
   1964,   146.276245,    42.798542
   1965,   146.536438,   41.1029434
   1966,   146.797333,   39.4113541
   1967,   147.060699,   37.7236862
   1968,   147.339401,   35.9967155
   1969,   147.628326,   34.2660713
   1970,   147.940598,   32.5334549
   1971,   148.326767,   30.8495979
   1972,   150.014587,   30.2683105
   1973,   151.044586,    31.529253
   1974,    152.03717,   32.5659142
   1975,   153.129059,   33.5215149
   1976,   154.159836,   34.2616844
   1977,   155.308395,   34.9206314
   1978,   156.458359,   35.4288979
   1979,     157.7491,   35.8234062
   1980,   140.373795,   27.8983078
   1981,   141.779175,   27.9444008
   1982,   143.153336,   28.0029316
   1983,   144.508926,   28.0885506
   1984,   145.873291,   28.2405739
   1985,   147.293961,   28.4974785
   1986,   148.793045,   26.8380604
   1987,   157.666138,   36.9204979
   1988,   157.614716,    38.134304
   1989,   157.575714,   39.4126854
   1990,   157.537292,    40.747345
   1991,   157.502136,   42.1084442
   1992,   157.478333,   43.4415245
   1993,   157.450607,   44.7841797
   1994,   157.423065,   46.1255188
   1995,    157.38208,   47.5179901
   1996,   157.356628,   48.8531265
   1997,   157.328339,   50.2030678
   1998,   157.292801,    51.591156
   1999,   156.353882,    36.509388
   2000,   156.277481,   37.7086258
   2001,   156.210373,   38.9886322
   2002,   156.154602,   40.3157997
   2003,   156.105743,   41.6707458
   2004,   156.056763,   43.0458488
   2005,   156.009689,   44.4212723
   2006,     155.9646,   45.7932281
   2007,   155.920166,   47.1656914
   2008,   155.873978,   48.5461845
   2009,   155.821045,   49.9479256
   2010,   155.757309,   51.3821487
   2011,   155.101791,   35.9487801
   2012,     154.9935,   37.1503143
   2013,    154.90033,   38.4404259
   2014,   154.820984,   39.7829514
   2015,   154.747894,   41.1597595
   2016,   154.677063,   42.5583534
   2017,   154.607971,   43.9668503
   2018,   154.540253,   45.3795547
   2019,   154.472656,   46.7967224
   2020,   154.401886,   48.2247429
   2021,   154.322876,   49.6734962
   2022,     154.2323,    51.147377
   2023,   153.904404,   35.2678185
   2024,   153.765503,     36.48592
   2025,   153.642166,   37.8026085
   2026,   153.531097,   39.1796646
   2027,   153.427582,   40.5947952
   2028,   153.328323,   42.0335655
   2029,    153.23172,   43.4857101
   2030,   153.136688,   44.9453545
   2031,    153.04155,   46.4116135
   2032,   152.942703,   47.8891716
   2033,    152.83548,   49.3843498
   2034,   152.708405,   50.9069061
   2035,   152.769455,   34.4917145
   2036,   152.586609,   35.7467499
   2037,   152.424728,   37.1071968
   2038,   152.277252,   38.5318298
   2039,   152.139282,   39.9958801
   2040,   152.007172,   41.4841461
   2041,   151.878632,   42.9868584
   2042,    151.75206,   44.4981308
   2043,   151.625443,   46.0165939
   2044,    151.49501,   47.5454865
   2045,   151.355255,   49.0894089
   2046,   151.194275,   50.6554718
   2047,   151.680496,   33.6354065
   2048,     151.4431,   34.9579468
   2049,   151.221573,   36.3626671
   2050,   151.044403,   37.8612595
   2051,   150.871918,   39.3850784
   2052,   150.705017,    40.928299
   2053,   150.541809,   42.4850311
   2054,   150.380707,    44.050293
   2055,   150.219818,   45.6218033
   2056,   150.055542,   47.2014236
   2057,   149.882233,   48.7919617
   2058,   149.689758,   50.3966217
   2059,   150.617325,   32.7246399
   2060,   150.312317,   34.1489525
   2061,   150.051636,   35.6519165
   2062,   149.824341,   37.2094193
   2063,    149.61319,   38.7906723
   2064,   149.410248,   40.3883324
   2065,    149.21199,   41.9962769
   2066,   149.014709,   43.6155548
   2067,   148.818222,   45.2385941
   2068,   148.619446,   46.8655243
   2069,   148.413239,   48.4978752
   2070,   148.191376,   50.1361084
   2071,   149.526382,   31.7845078
   2072,    149.15065,   33.3121719
   2073,   148.855743,   34.9474945
   2074,   148.592148,   36.5889168
   2075,    148.34491,   38.2391968
   2076,   148.108856,   39.8869743
   2077,   147.876343,   41.5437851
   2078,   147.646027,   43.2050552
   2079,   147.413651,    44.877327
   2080,   147.181213,   46.5456772
   2081,   146.943756,   48.2130737
   2082,   146.694763,   49.8792877
   2083,   143.701553,   49.3980255
   2084,   142.193192,   49.1861191
   2085,   140.680298,   48.9880714
   2086,   139.166443,    48.799057
   2087,   137.656815,   48.6138763
   2088,   136.153137,   48.4330673
   2089,   143.995941,   47.6903763
   2090,   142.506805,   47.4723663
   2091,    141.01004,   47.2751465
   2092,   139.509216,   47.0922203
   2093,   138.009033,   46.9167252
   2094,   136.512375,   46.7445107
   2095,   144.286789,   45.9743347
   2096,   142.819031,   45.7477684
   2097,   141.339981,   45.5497131
   2098,   139.853271,   45.3718414
   2099,   138.363022,   45.2054443
   2100,   136.871933,   45.0437469
   2101,   144.576324,   44.2520828
   2102,   143.130783,   44.0161858
   2103,   141.670151,   43.8166275
   2104,    140.19809,   43.6431999
   2105,   138.718079,   43.4853668
   2106,     137.2323,   43.3343658
   2107,   144.869354,   42.5147095
   2108,    143.44397,   42.2761536
   2109,   142.001083,   42.0775642
   2110,   140.543488,    41.909317
   2111,   139.073776,   41.7601128
   2112,   137.593216,   41.6198654
   2113,   145.168533,   40.7614479
   2114,    143.75885,   40.5304489
   2115,   142.332489,   40.3351822
   2116,   140.889038,    40.172699
   2117,   139.429535,   40.0322037
   2118,   137.954224,   39.9027328
   2119,   145.459381,   39.0336685
   2120,   144.071259,   38.7912788
   2121,   142.662582,   38.5942574
   2122,   141.233536,   38.4359741
   2123,    139.78447,   38.3036041
   2124,   138.314682,   38.1846695
   2125,   145.739227,   37.3420334
   2126,   144.378922,   37.0643883
   2127,   142.989471,    36.857811
   2128,   141.575378,   36.7010193
   2129,   140.137299,   36.5756798
   2130,   138.674088,   36.4668655
   2131,   146.030304,   35.6194305
   2132,   144.686584,     35.33181
   2133,   143.312927,   35.1211929
   2134,   141.913086,   34.9669495
   2135,   140.487259,   34.8487892
   2136,   139.033234,   34.7501488
   2137,   146.328339,   33.8823013
   2138,   144.993469,   33.5909081
   2139,   143.631149,   33.3813553
   2140,   142.244812,   33.2325096
   2141,    140.83371,   33.1229858
   2142,    139.38826,    33.034626
   2143,   146.636856,    32.134285
   2144,    145.29808,     31.83988
   2145,   143.940521,   31.6362762
   2146,    142.56604,   31.4970818
   2147,   141.166641,   31.3980598
   2148,   139.729492,   31.3207474
   2149,   146.965714,   30.3779945
   2150,   145.596405,   30.0772972
   2151,   144.233139,   29.8846741
   2152,   142.864441,   29.7610302
   2153,   141.473877,   29.6760788
   2154,   140.085297,   29.6008301
   2155,    140.62886,   26.2250671
   2156,   142.035202,   26.2561951
   2157,   143.401947,   26.2970963
   2158,   144.750336,   26.3646679
   2159,   146.094635,   26.4861984
   2160,   147.445831,   26.6760578
   2161,   152.126709,    15.751832
   2162,   101.671059,   15.0660124
   2163,   103.340897,   15.0595398
   2164,   105.009926,   15.0623274
   2165,   106.678436,   15.0712452
   2166,   108.346634,   15.0837412
   2167,   110.014648,   15.0981579
   2168,   111.682549,   15.1135397
   2169,   113.350403,   15.1293831
   2170,   115.018211,   15.1454372
   2171,    116.68602,   15.1615849
   2172,   118.353806,   15.1777725
   2173,   120.021591,   15.1939754
   2174,   121.689377,   15.2101841
   2175,   123.357162,   15.2263966
   2176,   125.024948,    15.242609
   2177,   126.711517,   15.2601347
   2178,   128.384796,   15.2767353
   2179,   130.042999,   15.2924509
   2180,   131.738251,   15.3109274
   2181,   133.452576,   15.3308086
   2182,    135.19429,   15.3544121
   2183,   136.824661,   15.3682985
   2184,   138.485397,   15.3850822
   2185,   140.170456,   15.4048481
   2186,   141.885193,   15.4294682
   2187,    143.40741,   15.4438219
   2188,   145.145645,   15.4654694
   2189,   146.679489,   15.4928284
   2190,    148.33197,   15.5323105
   2191,   150.024612,   15.5976887
   2192,   151.315323,   17.4557304
   2193,   150.466232,   18.9610119
   2194,   149.819626,   20.4226913
   2195,   149.329407,   21.9025631
   2196,   148.989517,   23.4490967
   2197,   147.867477,   1.49959707
   2198,   148.056396,   3.00248528
   2199,   148.504852,   4.50428867
   2200,   149.021973,   6.00745487
   2201,   149.567139,   7.51418209
   2202,   150.121033,   9.02852058
   2203,    150.70816,   10.5634203
   2204,   151.283035,   12.1339636
   2205,   151.777374,   13.7922773
   2206,    101.66053,   22.5368271
   2207,   101.666458,   21.0438843
   2208,   101.670799,   19.5484867
   2209,   101.673279,   18.0678902
   2210,   101.673065,   16.5780773
   2211,   103.321037,    22.521534
   2212,   103.332718,   21.0370693
   2213,   103.341209,   19.5467262
   2214,   103.345871,   18.0574741
   2215,   103.345139,      16.5639
   2216,   104.981705,   22.5242214
   2217,   104.998962,   21.0399265
   2218,   105.011398,   19.5498676
   2219,   105.017998,   18.0578918
   2220,   105.016548,   16.5631828
   2221,   106.642525,   22.5373936
   2222,   106.665222,   21.0501003
   2223,   106.681458,   19.5586224
   2224,   106.689857,   18.0653019
   2225,   106.687531,   16.5701332
   2226,   108.303421,   22.5559368
   2227,   108.331505,    21.064724
   2228,   108.351471,   19.5712852
   2229,   108.361549,   18.0769424
   2230,   108.358253,   16.5814686
   2231,   109.964363,    22.576828
   2232,   109.997803,   21.0816803
   2233,   110.021446,   19.5862026
   2234,    110.03315,   18.0909538
   2235,   110.028839,   16.5952244
   2236,   111.625336,   22.5986366
   2237,   111.664108,   21.0997353
   2238,   111.691391,   19.6022835
   2239,   111.704697,    18.106205
   2240,   111.699318,   16.6102524
   2241,   113.286339,   22.6207924
   2242,   113.330421,   21.1182728
   2243,   113.361336,   19.6189213
   2244,   113.376213,   18.1220665
   2245,   113.369751,   16.6259155
   2246,   114.947487,   22.6430626
   2247,   114.996773,   21.1370125
   2248,   115.031273,   19.6358089
   2249,   115.047714,   18.1382122
   2250,   115.040154,   16.6418839
   2251,   116.609177,    22.665287
   2252,   116.663269,   21.1558075
   2253,   116.701248,   19.6527977
   2254,   116.719208,   18.1544838
   2255,   116.710548,   16.6579933
   2256,   118.272995,   22.6871376
   2257,   118.330338,   21.1745338
   2258,   118.371384,   19.6698036
   2259,   118.390747,   18.1708069
   2260,   118.380936,   16.6741638
   2261,   119.935013,   22.7090721
   2262,   119.997101,   21.1932678
   2263,   120.041473,   19.6868229
   2264,   120.062279,   18.1871471
   2265,   120.051331,   16.6903591
   2266,   121.596573,   22.7310257
   2267,   121.663666,   21.2120075
   2268,    121.71151,    19.703846
   2269,    121.73381,   18.2034969
   2270,   121.721725,   16.7065659
   2271,   123.258003,   22.7529831
   2272,   123.330154,    21.230751
   2273,     123.3815,   19.7208748
   2274,   123.405312,   18.2198505
   2275,   123.392113,   16.7227745
   2276,   124.919403,   22.7749405
   2277,   124.996605,   21.2494946
   2278,   125.051483,   19.7379017
   2279,   125.076805,   18.2362061
   2280,     125.0625,    16.738987
   2281,   126.580727,   22.7968941
   2282,   126.662994,   21.2682343
   2283,   126.721405,   19.7549286
   2284,    126.74826,   18.2525597
   2285,   126.737541,   16.7555275
   2286,   128.241852,   22.8188324
   2287,   128.329163,   21.2869682
   2288,   128.391083,   19.7719498
   2289,   128.419479,   18.2689095
   2290,   128.412766,   16.7721252
   2291,   129.902252,   22.8407288
   2292,   129.994476,   21.3056774
   2293,    130.05986,   19.7889576
   2294,   130.092743,   18.2854996
   2295,   130.081696,   16.7883682
   2296,   131.560562,   22.8624973
   2297,   131.657303,   21.3243065
   2298,   131.726456,   19.8059597
   2299,   131.761871,   18.3019428
   2300,   131.760544,   16.8055191
   2301,   133.213928,   22.8838539
   2302,   133.314407,   21.3426399
   2303,   133.387756,   19.8228226
   2304,   133.430832,   18.3187084
   2305,   133.447632,   16.8235607
   2306,   134.849976,   22.9071808
   2307,   134.959473,   21.3607788
   2308,   135.039688,   19.8393726
   2309,   135.094345,   18.3355007
   2310,   135.135223,   16.8422508
   2311,    136.47226,   22.9259052
   2312,   136.585541,   21.3773804
   2313,   136.673767,   19.8551922
   2314,   136.740234,   18.3515816
   2315,   136.786194,   16.8584137
   2316,    138.09137,   22.9296951
   2317,   138.190704,   21.3887939
   2318,   138.286011,   19.8693581
   2319,   138.366684,   18.3671341
   2320,   138.430847,   16.8749924
   2321,   139.609116,    22.953907
   2322,   139.742584,   21.4060478
   2323,   139.865021,   19.8857231
   2324,   139.973938,   18.3843155
   2325,   140.072327,   16.8935204
   2326,   141.077576,   22.9784012
   2327,   141.249451,   21.4269409
   2328,   141.409607,   19.9058418
   2329,   141.556824,   18.4049759
   2330,   141.701141,   16.9151154
   2331,    142.52565,   22.9869137
   2332,   142.723007,   21.4476147
   2333,     142.9216,   19.9309235
   2334,    143.10788,    18.431263
   2335,    143.27655,   16.9388618
   2336,   143.906998,   23.0215492
   2337,   144.154236,   21.4803581
   2338,   144.401703,   19.9678345
   2339,   144.642853,   18.4686794
   2340,   144.877441,    16.971302
   2341,   145.263031,   23.0686188
   2342,   145.548355,   21.5333099
   2343,    145.84903,   20.0249825
   2344,   146.146912,   18.5266037
   2345,   146.430237,   17.0200195
   2346,   146.582321,   23.1563473
   2347,   146.895905,   21.6230602
   2348,   147.249664,   20.1191025
   2349,   147.631393,   18.6163139
   2350,   148.004715,    17.096386
   2351,    147.83812,   23.3005257
   2352,   148.166504,   21.7634907
   2353,   148.586929,    20.258873
   2354,   149.100555,   18.7411213
   2355,   149.611298,   17.2227325
   2356,    101.66362,   13.5547647
   2357,   101.652328,   12.0462208
   2358,   101.637817,   10.5381136
   2359,   101.620895,   9.02908325
   2360,   101.602325,   7.51938629
   2361,   101.582809,   6.01141644
   2362,   101.563446,   4.50791407
   2363,   101.546326,   3.00455546
   2364,   101.534332,   1.47397554
   2365,   103.325974,   13.5553093
   2366,   103.303513,   12.0499916
   2367,   103.274719,   10.5437145
   2368,   103.241119,   9.03642941
   2369,   103.204201,    7.5286417
   2370,   103.165436,   6.02128458
   2371,   103.127197,   4.51479149
   2372,   103.093712,   3.00743866
   2373,    103.07048,   1.49657154
   2374,    104.98748,   13.5610847
   2375,   104.953918,   12.0576172
   2376,    104.91098,   10.5523205
   2377,    104.86087,   9.04558182
   2378,   104.805756,   7.53795528
   2379,    104.74794,   6.02997208
   2380,   104.691132,   4.52182531
   2381,   104.641724,    3.0132637
   2382,   104.607697,   1.50469005
   2383,    106.64843,   13.5711403
   2384,   106.603813,   12.0683594
   2385,   106.546814,   10.5631933
   2386,   106.480286,   9.05612946
   2387,   106.407074,   7.54774666
   2388,   106.330322,   6.03853655
   2389,   106.255127,   4.52879429
   2390,   106.190079,   3.01872015
   2391,   106.145523,   1.50880551
   2392,   108.309036,   13.5839806
   2393,   108.253372,   12.0812054
   2394,   108.182358,   10.5755997
   2395,   108.099472,   9.06766891
   2396,   108.008232,   7.55803204
   2397,   107.912628,    6.0472393
   2398,   107.819168,   4.53569603
   2399,   107.738602,   3.02373314
   2400,   107.679169,   1.51172018
   2401,   109.969444,    13.598424
   2402,    109.90274,   12.0953169
   2403,   109.817719,   10.5889502
   2404,   109.718506,   9.07984924
   2405,   109.609283,   7.56869173
   2406,   109.494865,   6.05610466
   2407,   109.383194,   4.54258823
   2408,   109.284019,   3.02852941
   2409,   109.201149,   1.51425314
   2410,    111.62973,   13.6137161
   2411,   111.551994,   12.1101265
   2412,    111.45298,   10.6028385
   2413,   111.337448,   9.09241199
   2414,   111.210258,   7.57959414
   2415,   111.077057,   6.06509733
   2416,    110.94622,   4.54950142
   2417,   110.825859,   3.03324604
   2418,   110.717415,   1.51666248
   2419,   113.289955,   13.6294289
   2420,   113.201164,   12.1252956
   2421,   113.088181,   10.6170139
   2422,   112.956352,   9.10518742
   2423,   112.811203,   7.59064102
   2424,   112.659088,   6.07417393
   2425,   112.508347,   4.55644226
   2426,   112.365883,   3.03794146
   2427,   112.231468,   1.51903367
   2428,   114.950134,   13.6453428
   2429,   114.850304,   12.1406412
   2430,   114.723335,   10.6313353
   2431,   114.575211,   9.11807442
   2432,   114.412109,   7.60176659
   2433,   114.240997,   6.08329964
   2434,   114.070343,   4.56340504
   2435,   113.906738,   3.04263568
   2436,   113.749519,   1.52139461
   2437,   116.610298,   13.6613483
   2438,    116.49942,   12.1560707
   2439,   116.358475,   10.6457272
   2440,   116.194054,   9.13101673
   2441,   116.013008,   7.61293411
   2442,   115.822922,   6.09245205
   2443,   115.632774,   4.57038212
   2444,   115.449669,   3.04733372
   2445,   115.273987,   1.52375412
   2446,   118.270447,   13.6773939
   2447,   118.148521,   12.1715374
   2448,   117.993599,   10.6601505
   2449,   117.812897,   9.14398575
   2450,   117.613892,   7.62412071
   2451,   117.404892,   6.10161924
   2452,   117.195572,   4.57736731
   2453,   116.993774,   3.05203485
   2454,   116.800507,   1.52611411
   2455,   119.930595,   13.6934547
   2456,    119.79763,   12.1870193
   2457,   119.628723,   10.6745882
   2458,   119.431732,   9.15696716
   2459,   119.214783,   7.63531733
   2460,     118.9869,   6.11079311
   2461,   118.758591,   4.58435678
   2462,   118.538414,    3.0567379
   2463,   118.327713,   1.52847469
   2464,   121.590744,   13.7095222
   2465,   121.446724,    12.202508
   2466,   121.263847,   10.6890335
   2467,    121.05056,    9.1699543
   2468,   120.815666,   7.64651823
   2469,   120.568924,   6.11996984
   2470,   120.321701,   4.59134817
   2471,   120.083282,    3.0614419
   2472,   119.855179,   1.53083575
   2473,   123.250885,   13.7255936
   2474,   123.095825,   12.2180004
   2475,   122.898972,   10.7034817
   2476,   122.669388,   9.18294334
   2477,   122.416542,   7.65772152
   2478,   122.150963,   6.12914848
   2479,   121.884857,   4.59834099
   2480,   121.628227,   3.06614709
   2481,   121.382721,   1.53319716
   2482,   124.911026,   13.7416668
   2483,   124.744919,   12.2334948
   2484,   124.534088,   10.7179308
   2485,   124.288216,    9.1959343
   2486,   124.017418,   7.66892624
   2487,   123.732994,   6.13832808
   2488,   123.448029,   4.60533428
   2489,   123.173218,   3.07085228
   2490,   122.910301,   1.53555882
   2491,   126.575867,   13.7580681
   2492,   126.395187,   12.2490702
   2493,   126.169495,   10.7323999
   2494,   125.907104,   9.20893002
   2495,   125.618317,   7.68013239
   2496,   125.315033,   6.14750814
   2497,   125.011208,   4.61232758
   2498,   124.718216,   3.07555771
   2499,   124.437889,   1.53792048
   2500,    128.25473,   13.7765312
   2501,   128.049957,   12.2652435
   2502,   127.806297,   10.7470417
   2503,   127.526421,   9.22197533
   2504,   127.219337,   7.69135189
   2505,   126.897102,    6.1566925
   2506,   126.574394,    4.6193223
   2507,   126.263214,   3.08026361
   2508,   125.965485,   1.54028237
   2509,    129.93335,   13.7946215
   2510,   129.708069,    12.281826
   2511,   129.445038,   10.7619457
   2512,   129.146561,   9.23513412
   2513,   128.820663,   7.70261526
   2514,   128.479279,   6.16589212
   2515,   128.137619,   4.62632227
   2516,   127.808228,   3.08497143
   2517,   127.493088,   1.54264474
   2518,   131.627502,   13.8154869
   2519,   131.371902,   12.2993898
   2520,    131.08606,   10.7772293
   2521,   130.767593,   9.24844551
   2522,   130.422333,   7.71393728
   2523,   130.061584,   6.17511368
   2524,   129.700882,   4.63333035
   2525,   129.353256,    3.0896821
   2526,   129.019653,   1.54502487
   2527,   133.325317,   13.8373623
   2528,   133.034821,   12.3169355
   2529,   132.726562,   10.7924938
   2530,   132.388489,   9.26176929
   2531,   132.023956,   7.72527552
   2532,   131.643875,   6.18434572
   2533,    131.26413,   4.64034367
   2534,   130.895584,   3.09442949
   2535,   130.611725,   1.54731953
   2536,   134.959747,   13.8479881
   2537,   134.679932,   12.3315487
   2538,   134.361633,   10.8069611
   2539,   134.007629,   9.27487564
   2540,   133.624969,   7.73655701
   2541,   133.225922,   6.19356346
   2542,   132.824738,    4.6473732
   2543,   132.445129,   3.09914494
   2544,   132.131531,   1.54982376
   2545,   136.621399,   13.8651648
   2546,   136.328308,   12.3474293
   2547,   135.996033,   10.8216228
   2548,   135.625885,   9.28797531
   2549,   135.225433,   7.74779987
   2550,   134.806488,   6.20274448
   2551,   134.388046,   4.65434599
   2552,   133.991913,   3.10388279
   2553,   133.638809,   1.55257058
   2554,   138.296326,   13.8854179
   2555,   137.981567,   12.3646383
   2556,   137.631348,   10.8366356
   2557,   137.243866,   9.30102253
   2558,   136.825165,   7.75884819
   2559,   136.387283,   6.21169472
   2560,   135.949432,    4.6611042
   2561,   135.535568,   3.10840702
   2562,   135.159286,   1.55493104
   2563,   139.982666,   13.9079571
   2564,   139.636215,   12.3820934
   2565,   139.266251,   10.8511715
   2566,   138.861115,   9.31323051
   2567,   138.424377,   7.76891804
   2568,   137.967072,   6.21968365
   2569,    137.51091,   4.66701221
   2570,   137.078598,   3.11230803
   2571,   136.685501,   1.55705523
   2572,   141.617798,   13.9213915
   2573,   141.279175,   12.3964977
   2574,   140.897598,   10.8630533
   2575,   140.476562,   9.32250214
   2576,   140.022125,   7.77598572
   2577,   139.546661,   6.22488785
   2578,   139.071091,   4.67062378
   2579,   138.621429,   3.11455846
   2580,   138.189987,   1.55896938
   2581,   143.308594,   13.9478483
   2582,   142.934967,   12.4112778
   2583,    142.53125,   10.8703384
   2584,   142.091309,    9.3253727
   2585,    141.61853,   7.77642632
   2586,   141.124008,   6.22412205
   2587,   140.630844,   4.66934919
   2588,   140.154999,   3.11373758
   2589,   139.799805,   1.55687976
   2590,   144.892166,   13.9473362
   2591,   144.602905,   12.4243288
   2592,   144.166412,   10.8673925
   2593,   143.704468,   9.31587505
   2594,   143.212219,   7.76488543
   2595,   142.699646,   6.21294308
   2596,   142.184692,   4.66018772
   2597,   141.709076,   3.10682106
   2598,   141.355804,   1.55304062
   2599,   146.479965,   13.9436455
   2600,   146.196198,   12.3968964
   2601,    145.78067,   10.8384933
   2602,   145.309753,    9.2849741
   2603,   144.801605,   7.73506069
   2604,   144.271713,   6.18688107
   2605,   143.744263,    4.6394453
   2606,   143.268829,    3.0922296
   2607,   142.928619,   1.54542542
   2608,   148.152008,   13.9375229
   2609,   147.829315,   12.3512897
   2610,   147.401993,   10.7820597
   2611,   146.913605,   9.22776794
   2612,   146.388672,   7.68279076
   2613,   145.847504,   6.14281559
   2614,   145.317657,    4.6053133
   2615,   144.847137,   3.06902981
   2616,   144.518829,   1.53372884
   2617,   149.873688,   13.9012728
   2618,   149.512146,   12.2714024
   2619,   149.040192,   10.6917467
   2620,   148.515869,    9.1409626
   2621,   147.975494,   7.60662174
   2622,   147.433273,     6.080369
   2623,   146.912079,   4.55802917
   2624,   146.462067,    3.0375011
   2625,   146.149963,   1.51814532
   2626,   168.419098,   84.4750366
   2627,   161.460052,   87.0594177
   2628,   163.059479,   86.6951828
   2629,   164.687973,   86.1878815
   2630,   166.412567,   85.4948883
   2631,   168.285843,   86.3978348
   2632,    168.19632,   88.0387573
   2633,    168.13588,   89.5845795
   2634,   168.094757,   91.0941772
   2635,   168.066467,   92.5887451
   2636,   168.046722,   94.0765533
   2637,   168.032684,   95.5608826
   2638,   168.022797,   97.0428467
   2639,   168.016602,    98.522644
   2640,      167.431,   83.4250946
   2641,   172.188309,   76.4868622
   2642,   171.797363,   77.9793701
   2643,   171.242355,   79.4777374
   2644,   170.533997,   81.0019226
   2645,   169.647339,   82.6083069
   2646,    198.45047,   84.3787384
   2647,   196.902496,   84.3797607
   2648,   195.355652,   84.3813858
   2649,    193.80957,   84.3834686
   2650,   192.263962,   84.3858337
   2651,   190.718536,   84.3883438
   2652,   189.173096,   84.3909149
   2653,   187.627563,   84.3935013
   2654,   186.080017,   84.3960266
   2655,   184.502121,   84.3985748
   2656,   182.915543,   84.4004059
   2657,   181.333679,   84.4021988
   2658,   179.779083,   84.4044113
   2659,   178.224777,   84.4062347
   2660,   176.700424,   84.4060745
   2661,   175.109268,    84.406105
   2662,   173.621719,   84.4145508
   2663,   172.075211,   84.4334259
   2664,   170.411316,   84.4592743
   2665,   166.419327,   98.5602417
   2666,   164.823944,   98.6033859
   2667,   163.235016,   98.6453094
   2668,   161.658188,   98.6811371
   2669,   166.425964,   97.1201096
   2670,   164.830032,   97.2064819
   2671,   163.238556,   97.2913666
   2672,   161.655426,   97.3675461
   2673,    166.43512,    95.678894
   2674,   164.837402,   95.8094711
   2675,   163.241119,    95.939949
   2676,   161.645569,   96.0659637
   2677,   166.446869,   94.2361526
   2678,   164.846298,   94.4115295
   2679,   163.245911,   94.5871582
   2680,   161.645645,   94.7573547
   2681,   166.461304,   92.7912903
   2682,   164.855743,   93.0127869
   2683,   163.250824,   93.2342682
   2684,   161.647339,    93.446701
   2685,   166.478149,   91.3430786
   2686,    164.86322,   91.6147919
   2687,   163.251709,    91.882019
   2688,    161.64624,    92.127243
   2689,   166.495758,   89.8893127
   2690,   164.863434,   90.2182541
   2691,   163.241974,    90.532608
   2692,   161.624268,   90.7879486
   2693,    166.50882,   88.4243622
   2694,   164.847107,   88.8300171
   2695,   163.207672,   89.1928406
   2696,   161.583328,   89.4922943
   2697,   166.501495,   86.9465942
   2698,   164.797668,   87.4681396
   2699,   163.148285,    87.900528
   2700,   161.528305,   88.2459564
   2701,   161.395645,   85.9797897
   2702,   162.933655,   85.6213684
   2703,   164.495529,   85.0933533
   2704,   166.059647,   84.3751755
   2705,   168.546173,   82.1769638
   2706,   169.448349,   80.7233887
   2707,   170.166382,   79.2649078
   2708,   170.691498,   77.8178482
   2709,   171.022079,   76.3915787
   2710,   173.421387,    76.536644
   2711,   174.749252,   76.5691528
   2712,   176.126816,   76.5880051
   2713,   177.628738,   76.6034622
   2714,   179.047058,   76.6052094
   2715,   180.466736,   76.6040573
   2716,   181.867264,   76.6020432
   2717,   183.263107,   76.5994263
   2718,   184.657837,   76.5964813
   2719,   186.052368,   76.5933685
   2720,   187.446854,   76.5901794
   2721,   188.841293,   76.5869675
   2722,   190.235291,   76.5838089
   2723,   191.627319,   76.5809402
   2724,   193.012466,   76.5791016
   2725,   194.373749,   76.5807571
   2726,   195.759888,   76.5807648
   2727,   197.164963,   76.5797729
   2728,   198.580078,   76.5790939
   2729,   173.037018,   78.0789108
   2730,   174.367142,   78.1387863
   2731,   175.750656,   78.1712646
   2732,   177.163971,   78.1866608
   2733,   178.590027,   78.1921844
   2734,   180.021454,    78.192276
   2735,   181.450134,   78.1896515
   2736,   182.877258,   78.1856232
   2737,   184.303848,   78.1808853
   2738,   185.730377,   78.1758118
   2739,   187.156906,   78.1705627
   2740,   188.583359,   78.1652603
   2741,   190.009369,   78.1599884
   2742,   191.433792,   78.1549683
   2743,    192.85437,   78.1505585
   2744,   194.269226,   78.1472626
   2745,   195.691254,   78.1440277
   2746,   197.121948,   78.1411667
   2747,   198.559006,   78.1394348
   2748,   172.484238,   79.6107025
   2749,   173.827347,   79.6894989
   2750,   175.227798,   79.7319946
   2751,   176.660843,   79.7526703
   2752,   178.110611,   79.7608948
   2753,   179.567307,   79.7622375
   2754,   181.025803,   79.7599182
   2755,   182.484695,   79.7556839
   2756,   183.943924,   79.7504883
   2757,   185.403564,   79.7448196
   2758,   186.863052,   79.7389145
   2759,   188.322296,   79.7329178
   2760,   189.781158,   79.7269211
   2761,   191.239059,   79.7210464
   2762,   192.695282,   79.7154846
   2763,   194.150055,   79.7104187
   2764,   195.607285,   79.7058563
   2765,    197.06842,   79.7022095
   2766,   198.533051,   79.6999817
   2767,   171.836456,   81.1606293
   2768,   173.233887,   81.2445755
   2769,   174.672089,   81.2862625
   2770,   176.143097,   81.3064423
   2771,   177.628143,   81.3148499
   2772,   179.115311,   81.3167953
   2773,   180.604858,   81.3151093
   2774,   182.095963,   81.3115005
   2775,   183.589996,   81.3069534
   2776,   185.085159,   81.3019257
   2777,    186.57843,   81.2966156
   2778,   188.070099,   81.2911758
   2779,   189.560928,   81.2856903
   2780,   191.051071,   81.2802582
   2781,   192.540451,   81.2749786
   2782,    194.02951,   81.2700195
   2783,   195.519592,   81.2656403
   2784,    197.01152,   81.2622147
   2785,   198.505249,   81.2600937
   2786,   171.125198,   82.7642059
   2787,   172.631073,   82.8231354
   2788,   174.135651,   82.8464203
   2789,   175.634247,   82.8563156
   2790,   177.157135,   82.8610687
   2791,   178.671066,   82.8623047
   2792,   180.191406,   82.8609467
   2793,   181.715927,   82.8582306
   2794,   183.249619,   82.8549805
   2795,    184.78508,   82.8513794
   2796,   186.317368,   82.8474121
   2797,   187.840591,   82.8433151
   2798,   189.360748,   82.8391571
   2799,   190.879852,    82.835022
   2800,   192.398544,   82.8309784
   2801,   193.917191,   82.8271866
   2802,   195.436432,   82.8238678
   2803,   196.956726,   82.8213043
   2804,   198.478119,   82.8197021
   2805,   198.431274,   85.9382782
   2806,   198.418274,   87.4985199
   2807,   198.410126,   89.0596313
   2808,   198.405365,    90.621521
   2809,   198.402725,   92.1839905
   2810,   198.401337,   93.7468414
   2811,   198.400635,   95.3099365
   2812,   198.400299,   96.8731995
   2813,   198.400146,   98.4365692
   2814,   196.864349,   85.9384003
   2815,   196.838165,    87.497963
   2816,   196.821503,   89.0586777
   2817,   196.811569,   90.6204147
   2818,   196.805984,   92.1829071
   2819,   196.802994,   93.7458954
   2820,   196.801453,   95.3092041
   2821,    196.80069,   96.8727112
   2822,   196.800339,   98.4363174
   2823,   195.298645,   85.9387512
   2824,   195.259125,   87.4973755
   2825,   195.233704,   89.0575409
   2826,   195.218384,   90.6190414
   2827,   195.209625,   92.1815338
   2828,   195.204895,   93.7446899
   2829,   195.202423,   95.3082581
   2830,   195.201172,   96.8720627
   2831,   195.200592,    98.435997
   2832,   193.733643,   85.9393158
   2833,   193.680756,   87.4968414
   2834,   193.646469,   89.0563354
   2835,    193.62561,   90.6175385
   2836,   193.613571,   92.1800079
   2837,   193.606979,   93.7433319
   2838,   193.603485,   95.3071747
   2839,     193.6017,   96.8713226
   2840,   193.600876,   98.4356232
   2841,   192.169128,    85.940033
   2842,   192.102798,   87.4963531
   2843,    192.05957,   89.0551071
   2844,   192.033081,   90.6159821
   2845,     192.0177,    92.178421
   2846,   192.009171,   93.7418976
   2847,   192.004623,   95.3060303
   2848,   192.002289,   96.8705292
   2849,   192.001175,   98.4352264
   2850,   190.604843,   85.9408569
   2851,   190.525085,   87.4959183
   2852,    190.47287,    89.053894
   2853,   190.440704,   90.6143951
   2854,   190.421921,   92.1767883
   2855,   190.411438,   93.7404327
   2856,   190.405823,   95.3048477
   2857,   190.402908,   96.8697128
   2858,    190.40152,   98.4348145
   2859,   189.040649,   85.9417267
   2860,   188.947479,   87.4955139
   2861,   188.886276,   89.0526886
   2862,   188.848419,   90.6128082
   2863,   188.826202,   92.1751404
   2864,   188.813751,   93.7389374
   2865,   188.807037,   95.3036423
   2866,   188.803543,   96.8688812
   2867,   188.801849,   98.4343948
   2868,    187.47644,   85.9426117
   2869,   187.369904,   87.4951172
   2870,   187.299728,   89.0514908
   2871,    187.25618,   90.6112366
   2872,    187.23053,   92.1734848
   2873,    187.21608,   93.7374268
   2874,   187.208252,   95.3024368
   2875,   187.204163,    96.868042
   2876,   187.202194,   98.4339676
   2877,    185.91095,   85.9434662
   2878,   185.791733,   87.4947052
   2879,   185.712967,    89.050293
   2880,   185.663895,   90.6096497
   2881,   185.634857,   92.1718292
   2882,   185.618439,   93.7359238
   2883,   185.609482,   95.3012161
   2884,   185.604828,   96.8672028
   2885,   185.602539,    98.433548
   2886,   184.334991,    85.944252
   2887,   184.210022,   87.4942627
   2888,   184.125031,   89.0490723
   2889,   184.071228,   90.6080627
   2890,   184.039078,   92.1701813
   2891,   184.020752,   93.7344208
   2892,   184.010742,   95.3000031
   2893,   184.005478,   96.8663635
   2894,   184.002914,   98.4331207
   2895,    182.75354,   85.9448166
   2896,   182.625717,   87.4937363
   2897,   182.535995,   89.0478134
   2898,   182.478134,   90.6064529
   2899,    182.44313,   92.1685181
   2900,   182.423019,   93.7329102
   2901,   182.411972,   95.2987823
   2902,   182.406128,   96.8655167
   2903,   182.403275,   98.4326935
   2904,   181.171951,    85.945137
   2905,   181.040131,   87.4930115
   2906,   180.946014,   89.0464706
   2907,   180.884521,   90.6048126
   2908,   180.846954,   92.1668549
   2909,   180.825211,   93.7314301
   2910,   180.813156,   95.2975922
   2911,   180.806763,   96.8646851
   2912,   180.803619,   98.4322662
   2913,   179.598801,    85.945549
   2914,   179.456955,   87.4923935
   2915,   179.356537,    89.045311
   2916,   179.290955,   90.6034393
   2917,   179.250763,   92.1655045
   2918,   179.227386,   93.7302475
   2919,   179.214371,    95.296669
   2920,   179.207428,   96.8640976
   2921,    179.20401,   98.4320221
   2922,   178.030655,   85.9463348
   2923,   177.876694,    87.492836
   2924,   177.768372,   89.0456848
   2925,   177.697968,   90.6038284
   2926,   177.654877,   92.1659164
   2927,   177.629776,   93.7306976
   2928,   177.615753,   95.2971725
   2929,   177.608231,    96.864624
   2930,   177.604523,   98.4324265
   2931,   176.467163,   85.9489594
   2932,   176.297333,   87.4976349
   2933,   176.180725,   89.0517731
   2934,   176.105499,   90.6103668
   2935,    176.05954,   92.1722565
   2936,    176.03273,   93.7364349
   2937,   176.017639,   95.3020477
   2938,    176.00943,   96.8683548
   2939,   176.005341,   98.4346008
   2940,   174.883347,   85.9586105
   2941,   174.711121,   87.5146027
   2942,   174.590897,    89.072525
   2943,   174.512787,   90.6319046
   2944,   174.464783,   92.1925354
   2945,   174.436493,   93.7541809
   2946,   174.420349,    95.316452
   2947,   174.411346,   96.8787384
   2948,   174.406738,   98.4402313
   2949,   173.323669,   85.9878235
   2950,    173.12738,   87.5581818
   2951,   172.999802,   89.1222534
   2952,   172.919403,   90.6813889
   2953,   172.870331,   92.2377014
   2954,   172.841125,   93.7926407
   2955,    172.82402,   95.3467407
   2956,   172.814148,   96.8998184
   2957,   172.808929,     98.45121
   2958,   171.736145,   86.0513687
   2959,      171.528,   87.6466217
   2960,   171.400345,   89.2176514
   2961,   171.322235,   90.7725372
   2962,   171.274658,   92.3184586
   2963,   171.245819,   93.8597488
   2964,   171.228271,   95.3983994
   2965,   171.217667,   96.9349442
   2966,   171.211823,   98.4690552
   2967,   170.075729,   86.1725922
   2968,   169.891724,   87.8023682
   2969,   169.783279,   89.3743744
   2970,   169.716919,   90.9154892
   2971,   169.675476,   92.4413071
   2972,    169.64917,   93.9596252
   2973,   169.632233,   95.4739227
   2974,   169.621414,   96.9854431
   2975,   169.615128,   98.4942856
   2976,   154.328995,   61.8167725
   2977,   155.548538,   54.4125977
   2978,   155.373123,   56.0388641
   2979,   155.133392,   57.7513695
   2980,   154.797195,    59.615448
   2981,   152.288712,    61.265255
   2982,   150.642639,   60.8638802
   2983,   149.009979,    60.552536
   2984,   147.460495,    60.271843
   2985,   145.941162,    60.009079
   2986,   144.433044,   59.7567139
   2987,   142.928772,   59.5103302
   2988,   141.425674,   59.2673035
   2989,   139.923187,   59.0260544
   2990,   138.422516,   58.7855492
   2991,    136.92749,   58.5448532
   2992,   135.444962,   58.3029404
   2993,   133.983398,   58.0585938
   2994,   156.644165,   61.2829781
   2995,   155.731934,   64.6093445
   2996,   155.182541,     63.40345
   2997,   147.931183,   69.5618286
   2998,   148.940857,   68.0802994
   2999,   150.035187,   66.6189194
   3000,   151.232285,   65.1568756
   3001,   152.586731,   63.6303673
   3002,   134.370728,   56.4965706
   3003,   134.740768,   54.9257317
   3004,   135.100983,   53.3367157
   3005,   135.452667,   51.7276611
   3006,   135.859344,   56.7322693
   3007,   136.244888,   55.1512833
   3008,   136.610901,   53.5518951
   3009,   136.964249,   51.9289856
   3010,   137.364594,   56.9662323
   3011,   137.763336,   55.3756027
   3012,   138.133911,   53.7660294
   3013,    138.48587,   52.1325073
   3014,   138.880463,    57.199173
   3015,   139.291031,    55.599205
   3016,   139.665237,   53.9798622
   3017,   140.014465,   52.3372993
   3018,   140.402008,   57.4318085
   3019,   140.823914,   55.8227196
   3020,   141.200974,   54.1944237
   3021,   141.546234,   52.5447617
   3022,   141.926117,   57.6648636
   3023,   142.359314,   56.0468559
   3024,   142.738541,   54.4107933
   3025,   143.078445,   52.7566299
   3026,   143.451462,   57.8991165
   3027,    143.89595,   56.2722435
   3028,   144.276657,   54.6296844
   3029,   144.609772,   52.9740295
   3030,   144.978455,   58.1354904
   3031,   145.434113,   56.4991722
   3032,   145.815582,   54.8509674
   3033,   146.140472,   53.1966057
   3034,   146.509964,   58.3750496
   3035,   146.976501,   56.7273064
   3036,   147.357758,   55.0731506
   3037,   147.673553,   53.4213715
   3038,   148.053223,   58.6191635
   3039,   148.529129,    56.955574
   3040,   148.908005,   55.2937317
   3041,   149.213211,   53.6443787
   3042,   149.624298,   58.8697586
   3043,     150.1035,   57.1822548
   3044,   150.474655,   55.5087318
   3045,   150.765717,   53.8605423
   3046,   151.248657,   59.1299133
   3047,   151.714935,   57.4039879
   3048,   152.066925,   55.7135086
   3049,   152.334152,   54.0678635
   3050,   152.936279,   59.4021225
   3051,   153.375336,   57.6118164
   3052,   153.689545,   55.9024391
   3053,   153.925415,   54.2561493
   3054,   157.154861,   54.5587387
   3055,   157.037842,   56.1476212
   3056,   156.889603,   57.8031006
   3057,   156.724579,   59.5324554
   3058,   156.926483,   62.8119659
   3059,   157.217392,   64.0825043
   3060,   154.337265,   65.4335785
   3061,   153.038788,   66.4873123
   3062,   151.869537,   67.6798325
   3063,    150.85144,   68.9692078
   3064,   150.011322,   70.2901917
   3065,   153.587769,   64.5686874
   3066,   152.223953,   65.8368378
   3067,   151.022247,    67.162117
   3068,   149.952621,    68.534462
   3069,   149.020477,   69.9304123
   3070,   146.789642,   69.2242737
   3071,   145.602371,   68.9077606
   3072,   144.387222,   68.6077118
   3073,   143.155548,   68.3194427
   3074,    141.91449,   68.0388412
   3075,   140.668274,   67.7628784
   3076,   139.419342,   67.4895477
   3077,   138.169022,   67.2176437
   3078,   136.917969,   66.9464645
   3079,   135.666504,   66.6755219
   3080,   134.414917,   66.4042969
   3081,   133.163895,   66.1320496
   3082,   131.913483,   65.8577881
   3083,   147.811203,      67.6875
   3084,   146.606857,   67.3336334
   3085,    145.35585,   67.0120392
   3086,   144.077545,   66.7137375
   3087,   142.783905,   66.4306107
   3088,   141.481949,   66.1566849
   3089,   140.175568,   65.8880234
   3090,   138.866852,   65.6222229
   3091,   137.556915,   65.3578873
   3092,   136.246445,   65.0940781
   3093,   134.936493,   64.8298721
   3094,   133.629379,   64.5641556
   3095,    132.32724,   64.2957382
   3096,   148.883759,   66.1611786
   3097,   147.634949,   65.7672653
   3098,   146.330627,   65.4242477
   3099,   144.996307,    65.116333
   3100,   143.645966,   64.8306351
   3101,   142.287109,   64.5581894
   3102,   140.923676,   64.2932739
   3103,   139.557755,   64.0324707
   3104,   138.190552,   63.7737885
   3105,   136.823059,   63.5159302
   3106,    135.45752,   63.2577286
   3107,   134.098145,   62.9979248
   3108,   132.749084,   62.7353897
   3109,   149.998306,   64.6210327
   3110,   148.662933,   64.1896133
   3111,   147.280594,   63.8311958
   3112,    145.87912,    63.518425
   3113,   144.469131,   63.2328835
   3114,   143.054718,   62.9630966
   3115,   141.637726,   62.7021599
   3116,   140.219131,   62.4460602
   3117,   138.799713,    62.192482
   3118,   137.380798,   61.9399376
   3119,    135.96579,   61.6871643
   3120,   134.560196,   61.4329376
   3121,   133.169495,   61.1762085
   3122,   151.144119,   63.0178223
   3123,    149.66626,   62.5687561
   3124,   148.173798,   62.2133751
   3125,   146.695297,   61.9070587
   3126,   145.226273,   61.6279106
   3127,   143.761414,   61.3640671
   3128,   142.297821,   61.1088066
   3129,   140.834366,   60.8582878
   3130,   139.371078,   60.6102676
   3131,   137.909485,   60.3632889
   3132,   136.453583,   60.1161423
   3133,   135.009415,   59.8676987
   3134,   133.583054,   59.6169662
   3135,   137.671402,   26.1637096
   3136,    137.38765,   27.8255405
   3137,    137.07489,   29.5025597
   3138,   136.740967,   31.1879215
   3139,   136.393005,   32.8776016
   3140,   136.037842,   34.5695152
   3141,   135.680344,   36.2627563
   3142,   135.322449,   37.9567871
   3143,   134.964325,   39.6510887
   3144,   134.606094,   41.3450737
   3145,   134.248062,   43.0374641
   3146,   133.890884,   44.7249336
   3147,   133.535812,    46.401413
   3148,   133.184204,   48.0599213
   3149,   132.835663,   49.6967468
   3150,   132.497284,   51.3007317
   3151,   132.158813,    52.885479
   3152,    131.82048,    54.453968
   3153,   131.480652,   56.0104904
   3154,   131.136948,   57.5606003
   3155,   130.787888,   59.1079559
   3156,   130.434753,    60.654274
   3157,   130.079483,   62.2005692
   3158,   129.724838,   63.7477646
   3159,   129.374481,   65.2967529
   3160,   136.086578,   26.1366463
   3161,    135.81012,   27.7869358
   3162,   135.504471,   29.4509201
   3163,   135.178833,   31.1229553
   3164,   134.840973,    32.799408
   3165,   134.496735,   34.4782143
   3166,    134.14975,   36.1583023
   3167,   133.801758,   37.8390846
   3168,     133.4534,   39.5201645
   3169,   133.104904,   41.2010956
   3170,   132.756622,   42.8805695
   3171,   132.409363,   44.5548706
   3172,   132.064621,   46.2173805
   3173,    131.72406,   47.8608665
   3174,   131.388245,   49.4812202
   3175,   131.058243,   51.0763702
   3176,    130.73111,   52.6517181
   3177,    130.40564,    54.212204
   3178,   130.080093,   55.7625847
   3179,   129.753036,   57.3070068
   3180,   129.423676,   58.8483582
   3181,   129.092316,   60.3883209
   3182,   128.759872,   61.9278946
   3183,    128.42775,   63.4678078
   3184,   128.097427,   65.0085983
   3185,   134.505402,   26.0952644
   3186,   134.215988,   27.7417526
   3187,    133.91539,   29.3951988
   3188,   133.600189,   31.0547714
   3189,   133.274765,   32.7182083
   3190,   132.943558,   34.3838272
   3191,   132.609528,    36.050621
   3192,   132.274277,   37.7180405
   3193,   131.938507,   39.3857422
   3194,    131.60257,     41.05336
   3195,   131.266846,   42.7195663
   3196,    130.93222,   44.3805161
   3197,    130.60022,   46.0295868
   3198,   130.272491,   47.6598091
   3199,   129.949768,   49.2673569
   3200,   129.632004,   50.8522873
   3201,    129.31778,   52.4185982
   3202,   129.005814,   53.9711952
   3203,   128.694733,   55.5146408
   3204,   128.383484,   57.0525436
   3205,   128.071442,   58.5873909
   3206,   127.758545,   60.1207123
   3207,   127.445145,   61.6534271
   3208,   127.131836,   63.1861191
   3209,   126.819283,   64.7191849
   3210,    132.86116,   26.0652294
   3211,   132.598022,   27.6969376
   3212,   132.312302,   29.3377666
   3213,   132.010895,   30.9845676
   3214,   131.699661,   32.6349449
   3215,   131.382919,    34.287323
   3216,   131.063354,   35.9407692
   3217,   130.742462,   37.5947723
   3218,    130.42099,   39.2490387
   3219,   130.099304,   40.9032402
   3220,   129.777832,   42.5560493
   3221,   129.457474,   44.2036781
   3222,   129.139709,   45.8396797
   3223,   128.826111,   47.4574699
   3224,   128.517395,   49.0535202
   3225,   128.213379,    50.628418
   3226,   127.913017,   52.1858482
   3227,   127.615158,   53.7304993
   3228,   127.318649,    55.266655
   3229,   127.022644,   56.7976227
   3230,   126.726593,   58.3256531
   3231,   126.430283,   59.8521347
   3232,   126.133797,   61.3778992
   3233,     125.8377,   62.9035263
   3234,   125.541931,   64.4292603
   3235,   131.220734,   26.0306168
   3236,   130.973099,   27.6506577
   3237,    130.70224,   29.2791386
   3238,   130.415634,   30.9131451
   3239,   130.119476,   32.5504303
   3240,   129.817963,   34.1895409
   3241,   129.513687,   35.8296127
   3242,   129.208069,   37.4701805
   3243,    128.90184,   39.1109924
   3244,   128.595367,   40.7517319
   3245,   128.289093,   42.3911209
   3246,    127.98391,   44.0254822
   3247,   127.681236,   45.6486511
   3248,   127.382523,   47.2544098
   3249,   127.088501,   48.8394928
   3250,   126.798965,   50.4046097
   3251,   126.513039,   51.9532738
   3252,   126.229652,   53.4899445
   3253,   125.947815,   55.0186501
   3254,   125.666763,   56.5424805
   3255,   125.386024,   58.0635071
   3256,   125.105331,   59.5830269
   3257,   124.825043,   61.1018829
   3258,    124.54599,   62.6206894
   3259,   124.267212,    64.139473
   3260,    129.57933,   25.9945641
   3261,   129.345261,   27.6034603
   3262,   129.088882,   29.2197819
   3263,   128.817322,   30.8410339
   3264,    128.53656,   32.4652252
   3265,   128.250671,   34.0910492
   3266,   127.962105,   35.7177353
   3267,   127.672218,   37.3448639
   3268,   127.381706,   38.9722061
   3269,   127.090942,   40.5994759
   3270,   126.800369,    42.225441
   3271,   126.510834,   43.8465805
   3272,   126.223701,   45.4570541
   3273,   125.940323,   47.0509872
   3274,     125.6614,   48.6253319
   3275,   125.386742,    50.180809
   3276,   125.115562,   51.7207832
   3277,   124.846863,   53.2494545
   3278,   124.579758,   54.7706451
   3279,   124.313545,   56.2872314
   3280,   124.047791,   57.8011665
   3281,   123.782402,   59.3136978
   3282,   123.518349,   60.8257561
   3283,   123.257278,   62.3381119
   3284,   123.000397,   63.8511772
   3285,   127.936859,    25.958025
   3286,   127.715981,   27.5558243
   3287,   127.473961,   29.1600418
   3288,   127.217499,   30.7685642
   3289,   126.952278,   32.3796616
   3290,   126.682175,   33.9921951
   3291,   126.409515,   35.6054878
   3292,   126.135574,   37.2191658
   3293,   125.861015,   38.8330383
   3294,   125.586227,   40.4468307
   3295,     125.3116,   42.0593719
   3296,   125.037949,   43.6673279
   3297,   124.766594,   45.2651711
   3298,   124.498779,    46.847374
   3299,   124.235168,   48.4110794
   3300,   123.975601,   49.9570084
   3301,   123.719322,    51.488327
   3302,   123.465439,   53.0090103
   3303,   123.213097,    54.522644
   3304,   122.961685,   56.0319443
   3305,     122.7108,   57.5387497
   3306,   122.460579,    59.044281
   3307,   122.212494,   60.5495987
   3308,   121.970139,   62.0561562
   3309,   121.734238,   63.5641327
   3310,    126.29377,   25.9213181
   3311,   126.086006,   27.5079956
   3312,   125.858299,   29.1001244
   3313,   125.616943,   30.6959171
   3314,   125.367317,   32.2939148
   3315,   125.113083,    33.893158
   3316,   124.856415,   35.4930496
   3317,   124.598518,   37.0932808
   3318,   124.340042,   38.6936798
   3319,   124.081329,   40.2939949
   3320,   123.822769,   41.8931198
   3321,    123.56514,   43.4879074
   3322,   123.309662,   45.0731544
   3323,   123.057526,   46.6436691
   3324,   122.809341,   48.1967926
   3325,   122.564949,   49.7332001
   3326,   122.323669,   51.2558899
   3327,   122.084656,   52.7685852
   3328,   121.847122,   54.2746506
   3329,   121.610497,   55.7766495
   3330,   121.374413,   57.2762985
   3331,   121.139214,   58.7748222
   3332,   120.907692,   60.2737961
   3333,   120.684448,   61.7751198
   3334,   120.470566,   63.2791786
   3335,   124.650398,    25.884552
   3336,   124.455688,   27.4600945
   3337,   124.242279,   29.0401249
   3338,   124.016052,   30.6231899
   3339,   123.782043,   32.2080917
   3340,   123.543701,   33.7940331
   3341,   123.303062,   35.3805237
   3342,   123.061272,   36.9673042
   3343,   122.818909,   38.5542259
   3344,   122.576332,   40.1410675
   3345,   122.333893,   41.7267799
   3346,   122.092331,   43.3084106
   3347,   121.852783,    44.881073
   3348,   121.616379,   46.4399261
   3349,   121.383667,   47.9824829
   3350,    121.15451,   49.5093994
   3351,   120.928276,    51.023468
   3352,    120.70417,   52.5281754
   3353,   120.481461,   54.0266724
   3354,   120.259605,    55.521347
   3355,   120.038315,   57.0138359
   3356,   119.818329,   58.5054741
   3357,   119.603271,   59.9982376
   3358,   119.399101,   61.4949265
   3359,   119.208267,   62.9965057
   3360,   123.006897,   25.8477631
   3361,   122.825233,   27.4121609
   3362,   122.626099,   28.9800911
   3363,   122.415009,   30.5504227
   3364,    122.19664,   32.1222267
   3365,    121.97419,     33.69487
   3366,   121.749596,   35.2679634
   3367,   121.523926,   36.8412895
   3368,   121.297714,   38.4147339
   3369,   121.071289,   39.9880981
   3370,   120.844994,   41.5603981
   3371,   120.619522,   43.1288681
   3372,   120.395943,    44.688961
   3373,   120.175293,   46.2361641
   3374,   119.958076,   47.7681732
   3375,   119.744171,   49.2855949
   3376,   119.533005,   50.7910461
   3377,   119.323814,   52.2877655
   3378,   119.115936,   53.7786942
   3379,   118.908875,   55.2660484
   3380,   118.702385,   56.7513885
   3381,   118.497437,   58.2361031
   3382,    118.29834,   59.7227173
   3383,   118.110611,   61.2141609
   3384,   117.936859,    62.711937
   3385,    121.36335,   25.8109684
   3386,   121.194717,   27.3642159
   3387,   121.009857,   28.9200401
   3388,   120.813889,   30.4776421
   3389,   120.611153,   32.0363464
   3390,   120.404617,   33.5956879
   3391,   120.196075,   35.1553802
   3392,   119.986519,   36.7152557
   3393,   119.776474,   38.2752266
   3394,   119.566216,   39.8351097
   3395,   119.356079,   41.3939972
   3396,   119.146713,   42.9493103
   3397,    118.93911,   44.4968338
   3398,   118.734207,   46.0323906
   3399,   118.532509,   47.5538559
   3400,   118.333878,   49.0617981
   3401,   118.137779,   50.5586281
   3402,    117.94352,   52.0473557
   3403,   117.750481,   53.5307121
   3404,   117.558205,   55.0107498
   3405,   117.366486,   56.4889221
   3406,   117.176514,   57.9667587
   3407,   116.992256,    59.446846
   3408,   116.820053,   60.9332886
   3409,   116.660759,   62.4268417
   3410,   119.719788,   25.7741699
   3411,   119.564163,   27.3162651
   3412,   119.393593,   28.8599854
   3413,   119.212746,   30.4048538
   3414,   119.025635,   31.9504585
   3415,   118.835022,   33.4964981
   3416,   118.642532,   35.0427895
   3417,   118.449104,   36.5892105
   3418,   118.255219,    38.135704
   3419,   118.061142,   39.6821098
   3420,   117.867172,   41.2275887
   3421,   117.673904,   42.7697449
   3422,   117.482269,   44.3047028
   3423,   117.293137,   45.8286095
   3424,   117.106956,   47.3395309
   3425,   116.923599,   48.8379936
   3426,   116.742577,     50.32621
   3427,   116.563248,   51.8069572
   3428,   116.385056,   53.2827415
   3429,   116.207565,    54.755455
   3430,   116.030624,   56.2264709
   3431,   115.855309,   57.6972771
   3432,   115.685944,   59.1711235
   3433,      115.528,   60.6520004
   3434,   115.384583,   62.1427841
   3435,   118.076225,   25.7373695
   3436,   117.933609,   27.2683144
   3437,   117.777313,   28.7999268
   3438,   117.611588,   30.3320618
   3439,   117.440117,   31.8645649
   3440,   117.265411,   33.3973083
   3441,   117.088982,    34.930191
   3442,   116.911682,   36.4631653
   3443,   116.733948,   37.9961815
   3444,   116.556046,     39.52911
   3445,   116.378235,   41.0611763
   3446,   116.201088,   42.5901794
   3447,   116.025429,   44.1125679
   3448,   115.852074,   45.6248283
   3449,   115.681404,    47.125206
   3450,   115.513329,   48.6141853
   3451,   115.347382,   50.0937958
   3452,   115.182999,   51.5665588
   3453,   115.019646,   53.0347672
   3454,   114.856934,   54.5001602
   3455,   114.694733,   55.9640007
   3456,   114.534134,   57.4278717
   3457,   114.378654,   58.8947754
   3458,   114.234543,   60.3702927
   3459,   114.105972,   61.8581924
   3460,   116.430298,    25.700737
   3461,    116.30246,   27.2204018
   3462,   116.160881,   28.7398796
   3463,   116.010391,   30.2592716
   3464,   115.854584,   31.7786713
   3465,   115.695786,   33.2981148
   3466,   115.535416,   34.8175964
   3467,   115.374245,   36.3371162
   3468,   115.212677,   37.8566589
   3469,   115.050941,   39.3761101
   3470,   114.889297,   40.8947601
   3471,   114.728271,    42.410614
   3472,   114.568588,    43.920433
   3473,   114.410995,   45.4210472
   3474,   114.255859,    46.910881
   3475,   114.103065,   48.3903809
   3476,   113.952194,   49.8613739
   3477,   113.802742,   51.3261566
   3478,   113.654236,   52.7867966
   3479,   113.506302,   54.2448654
   3480,   113.358864,   55.7015457
   3481,   113.212738,   57.1582565
   3482,   113.071548,   58.6187172
   3483,   112.941429,   60.0891228
   3484,   112.826813,   61.5743065
   3485,   114.785797,    25.663784
   3486,   114.671516,   27.1724224
   3487,   114.544456,   28.6798153
   3488,    114.40918,   30.1864815
   3489,   114.269028,   31.6927795
   3490,   114.126167,   33.1989212
   3491,   113.981857,   34.7050018
   3492,   113.836807,    36.211071
   3493,   113.691399,   37.7171402
   3494,   113.545837,   39.2231064
   3495,   113.400375,   40.7283478
   3496,   113.255447,   42.2310486
   3497,   113.111755,   43.7282944
   3498,   112.969925,   45.2172661
   3499,   112.830307,   46.6965561
   3500,   112.692795,   48.1665726
   3501,   112.557007,   49.6289558
   3502,   112.422485,   51.0857544
   3503,   112.288818,   52.5388184
   3504,   112.155685,   53.9895706
   3505,   112.022964,   55.4390526
   3506,   111.891449,   56.8887787
   3507,   111.764534,   58.3426743
   3508,    111.64827,   59.8081856
   3509,   111.546463,   61.2901001
   3510,   113.142151,   25.6266689
   3511,   113.040833,   27.1243858
   3512,   112.928101,   28.6197376
   3513,   112.807983,   30.1136856
   3514,   112.683487,    31.606884
   3515,   112.556549,   33.0997238
   3516,   112.428291,   34.5924072
   3517,    112.29937,   36.0850258
   3518,   112.170128,   37.5776176
   3519,   112.040749,   39.0701065
   3520,   111.911453,   40.5619354
   3521,   111.782639,   42.0514832
   3522,   111.654915,   43.5361595
   3523,   111.528862,    45.013485
   3524,   111.404755,   46.4822311
   3525,   111.282524,   47.9427643
   3526,   111.161819,   49.3965378
   3527,   111.042244,   50.8453522
   3528,   110.923416,   52.2908478
   3529,   110.805069,    53.734272
   3530,   110.687088,     55.17659
   3531,   110.570152,   56.6192284
   3532,   110.457603,   58.0668488
   3533,   110.354752,   59.5270576
   3534,     110.2649,   61.0053406
   3535,    111.49884,   25.5895042
   3536,   111.410316,   27.0763226
   3537,   111.311798,   28.5596466
   3538,   111.206818,   30.0408821
   3539,   111.097954,   31.5209885
   3540,   110.986923,   33.0005341
   3541,   110.874725,   34.4798126
   3542,   110.761932,   35.9589767
   3543,   110.648849,   37.4380913
   3544,   110.535652,   38.9171066
   3545,   110.422523,   40.3955231
   3546,   110.309822,   41.8719139
   3547,   110.198074,   43.3440247
   3548,   110.087791,   44.8097038
   3549,    109.97921,   46.2679062
   3550,   109.872253,   47.7189598
   3551,   109.766624,   49.1641235
   3552,   109.661987,   50.6049538
   3553,   109.558006,   52.0428734
   3554,   109.454437,   53.4789772
   3555,   109.351196,   54.9141006
   3556,    109.24894,   56.3498154
   3557,   109.150574,   57.7908249
   3558,   109.060913,   59.2458267
   3559,   108.980865,   60.7173004
   3560,   109.855652,   25.5523643
   3561,   109.779854,   27.0282669
   3562,   109.695541,   28.4995575
   3563,   109.605659,   29.9680805
   3564,   109.512421,    31.435091
   3565,    109.41729,   32.9013367
   3566,   109.321159,    34.367218
   3567,   109.224495,   35.8329277
   3568,   109.127579,   37.2985687
   3569,   109.030556,   38.7641029
   3570,   108.933594,   40.2291069
   3571,   108.836998,   41.6923447
   3572,   108.741241,   43.1518898
   3573,   108.646729,   44.6059189
   3574,   108.553665,   46.0535812
   3575,   108.461975,   47.4951553
   3576,   108.371429,   48.9317093
   3577,   108.281731,   50.3645554
   3578,   108.192596,   51.7949028
   3579,   108.103821,   53.2236824
   3580,   108.015327,   54.6516457
   3581,   107.927673,   56.0802727
   3582,   107.843521,   57.5149536
   3583,   107.766182,   58.9628448
   3584,   107.696396,    60.427887
   3585,   108.212509,   25.5154915
   3586,   108.149437,    26.980423
   3587,   108.079292,   28.4395561
   3588,   108.004501,    29.895256
   3589,   107.926895,   31.3491402
   3590,   107.847672,   32.8021164
   3591,   107.767586,   34.2546539
   3592,   107.687057,   35.7069855
   3593,   107.606308,   37.1591988
   3594,   107.525459,   38.6112556
   3595,   107.444656,   40.0628204
   3596,   107.364174,   41.5129013
   3597,   107.284393,   42.9598961
   3598,    107.20565,   44.4023094
   3599,   107.128113,   45.8394547
   3600,   107.051697,   47.2715912
   3601,   106.976234,    48.699585
   3602,   106.901482,   50.1244888
   3603,   106.827194,   51.5472145
   3604,   106.753204,   52.9686279
   3605,   106.679451,   54.3893776
   3606,   106.606445,   55.8110962
   3607,   106.536118,   57.2383537
   3608,   106.471359,   58.6800232
   3609,   106.413353,   60.1419144
   3610,   106.569412,   25.4802742
   3611,   106.519043,   26.9336853
   3612,   106.463074,   28.3798027
   3613,   106.403366,    29.822155
   3614,    106.34137,   31.2629261
   3615,   106.278061,     32.70298
   3616,   106.214035,   34.1426697
   3617,   106.149628,   35.5820465
   3618,    106.08503,   37.0209808
   3619,   106.020363,    38.459446
   3620,   105.955734,   39.8974495
   3621,   105.891373,   41.3344345
   3622,    105.82756,   42.7690582
   3623,   105.764587,   44.2000427
   3624,   105.702553,   45.6269302
   3625,   105.641418,   47.0499802
   3626,   105.581039,   48.4696388
   3627,   105.521217,   49.8865585
   3628,   105.461792,   51.3015404
   3629,   105.402588,   52.7153854
   3630,   105.343575,   54.1288795
   3631,   105.285141,   55.5433388
   3632,   105.228882,   56.9640732
   3633,   105.177269,   58.4019241
   3634,   105.131378,   59.8623085
   3635,   104.926422,   25.4502888
   3636,   104.888733,   26.8898582
   3637,   104.846901,   28.3202019
   3638,   104.802261,   29.7480564
   3639,   104.755867,   31.1763172
   3640,   104.708458,   32.6048584
   3641,   104.660477,   34.0332336
   3642,   104.612198,   35.4606705
   3643,   104.563766,   36.8864555
   3644,   104.515274,   38.3108482
   3645,   104.466812,    39.735054
   3646,   104.418549,   41.1593399
   3647,    104.37072,   42.5822678
   3648,   104.323509,   44.0025253
   3649,   104.276993,   45.4200096
   3650,    104.23114,   46.8346024
   3651,   104.185837,   48.2461929
   3652,   104.140953,   49.6554031
   3653,   104.096367,   51.0620422
   3654,   104.051956,   52.4678993
   3655,    104.00769,   53.8738785
   3656,   103.963882,   55.2812576
   3657,   103.921875,    56.696785
   3658,   103.883499,     58.13134
   3659,   103.849396,   59.5881424
   3660,   103.283722,   25.4317379
   3661,   103.258667,   26.8516273
   3662,   103.230896,   28.2596588
   3663,   103.201256,   29.6713428
   3664,   103.170425,   31.0894394
   3665,   103.138878,   32.5095367
   3666,   103.106934,   33.9294624
   3667,   103.074768,   35.3466873
   3668,   103.042496,   36.7591705
   3669,    103.01017,   38.1680679
   3670,   102.977882,   39.5778732
   3671,   102.945724,   40.9906693
   3672,   102.913864,   42.4035378
   3673,   102.882408,    43.814209
   3674,   102.851395,    45.223175
   3675,   102.820824,   46.6300507
   3676,   102.790604,   48.0342484
   3677,   102.760666,   49.4361801
   3678,   102.730934,   50.8331833
   3679,   102.701324,   52.2303467
   3680,   102.671806,    53.628952
   3681,   102.642662,    55.029911
   3682,   102.614868,   56.4395294
   3683,   102.589439,   57.8666458
   3684,    102.56633,   59.3132095
   3685,   101.641495,   25.4351387
   3686,   101.629013,   26.8228798
   3687,   101.615204,   28.1931896
   3688,   101.600464,   29.5872326
   3689,   101.585106,   31.0018158
   3690,   101.569374,    32.418087
   3691,   101.553429,   33.8339043
   3692,   101.537369,   35.2438736
   3693,    101.52124,   36.6421967
   3694,   101.505081,   38.0311508
   3695,   101.488953,   39.4245224
   3696,   101.472885,   40.8290672
   3697,    101.45697,   42.2348862
   3698,   101.441254,   43.6359711
   3699,   101.425751,   45.0368767
   3700,   101.410461,   46.4369736
   3701,    101.39534,   47.8336334
   3702,   101.380363,   49.2315292
   3703,   101.365486,   50.6143188
   3704,    101.35067,   52.0025482
   3705,   101.335922,   53.3953247
   3706,   101.321411,    54.790062
   3707,   101.307625,   56.1890526
   3708,   101.294922,   57.6023941
   3709,   101.283096,   59.0362396
   3710,   157.576645,   86.9962997
   3711,   158.241699,   85.9159241
   3712,    155.95929,    85.951622
   3713,   154.657837,   85.0501022
   3714,   153.497726,   84.1662216
   3715,   152.437088,   83.2438965
   3716,   151.479706,   82.2624359
   3717,   150.632141,   81.2135468
   3718,   149.904114,   80.1003494
   3719,   149.301422,   78.9290619
   3720,   148.827225,   77.7094269
   3721,   148.480377,    76.452919
   3722,   148.254364,   75.1730576
   3723,   148.135483,   73.8849564
   3724,   148.119293,   72.6016998
   3725,   158.554047,   98.7158737
   3726,   158.548416,   97.4372559
   3727,    158.53537,   96.1710052
   3728,   158.529968,   94.8984222
   3729,   158.519714,   93.6250153
   3730,   158.492218,    92.342186
   3731,   158.418915,    91.037384
   3732,   158.265411,   89.7388687
   3733,   157.998978,   88.4260025
   3734,    101.46286,   83.4716797
   3735,   102.925095,   83.5861511
   3736,   104.387054,   83.7020721
   3737,   105.848862,   83.8203888
   3738,   107.310577,   83.9403458
   3739,   108.772232,   84.0610962
   3740,   110.233871,   84.1821747
   3741,   111.695465,   84.3033905
   3742,   113.157043,   84.4246597
   3743,   114.618622,   84.5459442
   3744,     116.0802,    84.667244
   3745,   117.541779,   84.7885437
   3746,   119.003387,   84.9098206
   3747,   120.490891,   85.0211029
   3748,   121.954346,   85.1416779
   3749,   123.449707,   85.2495041
   3750,   124.915115,   85.3693161
   3751,   126.419632,    85.472908
   3752,   127.887207,   85.5918274
   3753,    129.33992,   85.7166824
   3754,   130.765549,   85.8521423
   3755,   132.210022,   85.9791107
   3756,      133.666,   86.1008682
   3757,   135.138107,   86.2157745
   3758,   136.616516,   86.3275146
   3759,   138.091553,   86.4401398
   3760,   139.563126,   86.5539169
   3761,   141.029053,   86.6697998
   3762,   142.500839,    86.783287
   3763,   143.953674,   86.9033127
   3764,   145.331161,   87.0496674
   3765,    146.77092,   87.1725616
   3766,   148.275345,   87.2714615
   3767,   149.703522,   87.3839417
   3768,    151.14502,   87.4687881
   3769,   152.604279,   87.5102005
   3770,   154.108414,   87.4850006
   3771,   155.753983,   87.3648453
   3772,   149.180222,   72.7670898
   3773,   149.105072,   73.9736481
   3774,   149.147354,   75.1993866
   3775,   149.313324,   76.4259644
   3776,   149.609177,   77.6373215
   3777,   150.039886,   78.8197327
   3778,   150.607574,   79.9604034
   3779,   151.313599,     81.04879
   3780,   152.156189,   82.0725861
   3781,   153.135895,    83.024437
   3782,   154.244217,   83.8940277
   3783,     155.4758,   84.6836777
   3784,    156.80249,   85.3997192
   3785,   157.031555,   98.7134705
   3786,   155.518997,   98.7063065
   3787,    154.01236,   98.6970367
   3788,   152.509003,   98.6869965
   3789,   151.007339,   98.6767349
   3790,     149.5065,   98.6664581
   3791,   148.006027,     98.65625
   3792,   146.505722,     98.64608
   3793,   145.005508,   98.6359558
   3794,    143.50531,   98.6258392
   3795,   142.005127,   98.6157379
   3796,   140.504944,   98.6056442
   3797,   139.004761,   98.5955582
   3798,   137.504593,   98.5854721
   3799,   136.004395,   98.5753937
   3800,   134.504242,      98.5653
   3801,   133.004059,   98.5552216
   3802,    131.50386,   98.5451355
   3803,   130.003693,   98.5350494
   3804,   128.503494,   98.5249634
   3805,   127.003319,   98.5148773
   3806,   125.503128,   98.5047913
   3807,   124.002953,   98.4947052
   3808,   122.502777,   98.4846191
   3809,   121.002594,   98.4745331
   3810,   119.502411,    98.464447
   3811,    118.00222,    98.454361
   3812,   116.502045,   98.4442825
   3813,   115.001854,   98.4341888
   3814,   113.501678,   98.4241028
   3815,   112.001495,   98.4140167
   3816,   110.501312,   98.4039383
   3817,   109.001129,   98.3938522
   3818,   107.500946,    98.383873
   3819,   106.000763,   98.3742599
   3820,    104.50058,   98.3655014
   3821,   103.000389,   98.3599777
   3822,   101.500198,   98.3684692
   3823,   157.029633,   97.4288177
   3824,    155.51889,   97.4132233
   3825,   154.013031,   97.3944168
   3826,   152.509979,    97.374321
   3827,   151.008423,   97.3538284
   3828,   149.507599,   97.3333206
   3829,   148.007126,   97.3128815
   3830,   146.506805,   97.2925415
   3831,   145.006561,   97.2722702
   3832,   143.506332,    97.252037
   3833,   142.006119,   97.2318268
   3834,    140.50589,   97.2116318
   3835,   139.005676,   97.1914444
   3836,   137.505463,   97.1712646
   3837,   136.005249,   97.1510773
   3838,   134.505035,   97.1308899
   3839,   133.004822,   97.1107178
   3840,   131.504608,   97.0905304
   3841,   130.004395,   97.0703506
   3842,   128.504166,   97.0501709
   3843,   127.003952,   97.0299835
   3844,   125.503723,   97.0097961
   3845,   124.003502,   96.9896088
   3846,   122.503288,    96.969429
   3847,   121.003067,   96.9492493
   3848,   119.502838,   96.9290695
   3849,   118.002625,   96.9088898
   3850,   116.502396,     96.88871
   3851,   115.002182,   96.8685303
   3852,   113.501968,   96.8483429
   3853,   112.001747,   96.8281555
   3854,   110.501526,   96.8079758
   3855,   109.001305,    96.787796
   3856,   107.501083,   96.7676926
   3857,   106.000862,   96.7476807
   3858,   104.500641,   96.7274017
   3859,   103.000427,   96.7060242
   3860,   101.500198,   96.6778183
   3861,    157.02475,   96.1480408
   3862,   155.516541,   96.1219177
   3863,   154.011414,   96.0931778
   3864,    152.50856,   96.0630798
   3865,   151.007034,   96.0324631
   3866,   149.506256,     96.00177
   3867,   148.005814,   95.9711304
   3868,   146.505539,   95.9406128
   3869,   145.005325,   95.9101562
   3870,   143.505157,   95.8797684
   3871,    142.00499,    95.849411
   3872,   140.504807,   95.8190613
   3873,   139.004639,   95.7887268
   3874,   137.504471,   95.7583923
   3875,   136.004303,   95.7280655
   3876,    134.50412,   95.6977386
   3877,   133.003937,   95.6674118
   3878,   131.503769,   95.6370773
   3879,   130.003601,   95.6067505
   3880,   128.503403,    95.576416
   3881,   127.003212,   95.5460892
   3882,   125.503021,   95.5157547
   3883,   124.002838,   95.4854202
   3884,   122.502655,   95.4550858
   3885,   121.002457,   95.4247589
   3886,   119.502258,   95.3944244
   3887,   118.002075,   95.3640976
   3888,   116.501884,   95.3337708
   3889,   115.001694,   95.3034363
   3890,   113.501511,   95.2731018
   3891,   112.001328,    95.242775
   3892,   110.501144,   95.2124405
   3893,   109.000946,   95.1821136
   3894,   107.500763,   95.1517944
   3895,   106.000572,   95.1214066
   3896,   104.500389,     95.09095
   3897,   103.000214,   95.0604401
   3898,   101.500061,   95.0273972
   3899,   157.017365,   94.8678131
   3900,    155.50798,   94.8332214
   3901,   154.002045,   94.7955246
   3902,   152.498734,   94.7560196
   3903,   150.997055,   94.7156296
   3904,   149.496338,   94.6749039
   3905,   147.995956,   94.6341629
   3906,   146.495804,   94.5934753
   3907,   144.995789,   94.5528183
   3908,   143.495865,   94.5121765
   3909,   141.996002,   94.4715424
   3910,   140.496155,   94.4309082
   3911,   138.996338,   94.3902893
   3912,   137.496506,   94.3496628
   3913,   135.996674,   94.3090363
   3914,   134.496826,   94.2684174
   3915,   132.996964,   94.2277832
   3916,   131.497101,    94.187149
   3917,   129.997223,   94.1465073
   3918,   128.497345,   94.1058731
   3919,   126.997452,   94.0652237
   3920,   125.497559,   94.0245895
   3921,   123.997681,   93.9839478
   3922,   122.497787,    93.943306
   3923,   120.997894,   93.9026642
   3924,   119.498001,   93.8620224
   3925,   117.998108,   93.8213806
   3926,   116.498215,   93.7807312
   3927,   114.998322,   93.7400894
   3928,   113.498444,   93.6994476
   3929,    111.99855,   93.6588135
   3930,   110.498657,   93.6181717
   3931,   108.998764,   93.5775299
   3932,   107.498871,   93.5368881
   3933,   105.998985,   93.4964142
   3934,     104.4991,   93.4571228
   3935,    102.99926,   93.4207153
   3936,   101.499527,   93.3885345
   3937,   156.997742,   93.5902481
   3938,   155.483093,   93.5502014
   3939,   153.974503,   93.5056229
   3940,   152.469376,   93.4582367
   3941,   150.966904,   93.4089737
   3942,   149.465668,   93.3588867
   3943,   147.965149,   93.3083954
   3944,    146.46524,   93.2576141
   3945,   144.965836,   93.2066345
   3946,   143.466751,   93.1555176
   3947,   141.967865,   93.1043167
   3948,    140.46907,   93.0530701
   3949,   138.970306,   93.0018234
   3950,   137.471542,   92.9505615
   3951,   135.972717,   92.8992996
   3952,   134.473907,   92.8480072
   3953,   132.975037,   92.7967224
   3954,   131.476135,     92.74543
   3955,   129.977219,   92.6941147
   3956,   128.478287,   92.6427917
   3957,    126.97937,   92.5914612
   3958,   125.480438,   92.5401306
   3959,   123.981522,      92.4888
   3960,    122.48259,   92.4374542
   3961,   120.983665,   92.3861237
   3962,   119.484741,   92.3347778
   3963,   117.985809,   92.2834473
   3964,   116.486893,   92.2321091
   3965,   114.987968,   92.1807709
   3966,   113.489059,   92.1294327
   3967,   111.990128,   92.0781021
   3968,   110.491203,   92.0267639
   3969,   108.992279,   91.9754333
   3970,   107.493347,   91.9241486
   3971,   105.994431,   91.8734207
   3972,   104.495529,   91.8249512
   3973,   102.996735,    91.781723
   3974,   101.498169,   91.7478333
   3975,   156.950073,   92.3144989
   3976,   155.424194,   92.2764816
   3977,   153.907654,   92.2307663
   3978,   152.398544,   92.1788483
   3979,   150.894516,    92.122673
   3980,    149.39325,   92.0639648
   3981,   147.893646,   92.0037384
   3982,   146.395248,   91.9425583
   3983,   144.897644,   91.8808136
   3984,    143.40065,   91.8187103
   3985,   141.904068,   91.7563782
   3986,   140.407761,   91.6938858
   3987,   138.911423,   91.6313782
   3988,   137.414993,   91.5688782
   3989,   135.918365,   91.5063858
   3990,   134.421494,   91.4439545
   3991,   132.924667,   91.3814392
   3992,   131.427765,   91.3188934
   3993,   129.930923,   91.2562866
   3994,   128.434158,   91.1936111
   3995,   126.937462,   91.1308899
   3996,   125.440796,   91.0681534
   3997,   123.944138,    91.005394
   3998,   122.447495,   90.9426346
   3999,   120.950851,   90.8798752
   4000,   119.454208,   90.8171158
   4001,   117.957565,   90.7543564
   4002,    116.46093,    90.691597
   4003,   114.964294,   90.6288376
   4004,   113.467659,   90.5660706
   4005,   111.971024,   90.5033112
   4006,   110.474373,   90.4405518
   4007,    108.97773,   90.3777924
   4008,   107.481079,   90.3151398
   4009,   105.984451,    90.253212
   4010,   104.487869,   90.1938324
   4011,   102.991455,   90.1396637
   4012,   101.495407,   90.0926208
   4013,   156.843262,    91.040657
   4014,   155.305405,   91.0193939
   4015,   153.774445,   90.9815979
   4016,     152.2668,   90.9269943
   4017,   150.757935,   90.8671951
   4018,    149.25769,   90.8004608
   4019,   147.762085,   90.7297211
   4020,   146.267914,    90.657196
   4021,   144.774139,   90.5839081
   4022,   143.281174,   90.5099945
   4023,   141.789154,   90.4355545
   4024,   140.297073,   90.3610382
   4025,   138.804718,   90.2865601
   4026,   137.311172,   90.2124939
   4027,   135.817902,   90.1382141
   4028,   134.324432,   90.0638885
   4029,   132.830246,   89.9897156
   4030,   131.336884,   89.9151001
   4031,   129.844055,   89.8401794
   4032,   128.351471,   89.7650757
   4033,   126.859024,   89.6898804
   4034,   125.366081,   89.6148834
   4035,   123.873352,   89.5397797
   4036,   122.380875,   89.4645691
   4037,   120.888542,   89.3892975
   4038,   119.396278,    89.314003
   4039,   117.904045,   89.2386932
   4040,   116.411812,   89.1633835
   4041,   114.919586,   89.0880661
   4042,   113.427368,   89.0127563
   4043,    111.93515,    88.937439
   4044,   110.442917,   88.8621216
   4045,   108.950676,   88.7868118
   4046,   107.458435,   88.7116165
   4047,   105.966217,   88.6371765
   4048,    104.47406,   88.5652313
   4049,   102.982117,   88.4975281
   4050,   101.490639,   88.4334641
   4051,   156.646011,   89.7816849
   4052,   155.068207,   89.7924042
   4053,   153.571121,   89.7628403
   4054,   152.028442,   89.7197876
   4055,   150.522278,    89.655777
   4056,   149.033859,   89.5782242
   4057,   147.555603,   89.4923859
   4058,   146.074921,   89.4050446
   4059,   144.589035,   89.3186035
   4060,   143.101318,   89.2323303
   4061,   141.614807,   89.1453171
   4062,   140.127975,   89.0582962
   4063,   138.638794,   88.9721527
   4064,   137.149612,   88.8858948
   4065,    135.65799,   88.8003845
   4066,   134.169479,   88.7134171
   4067,   132.678711,   88.6270905
   4068,   131.190659,    88.539444
   4069,   129.706635,   88.4500122
   4070,   128.222839,   88.3603516
   4071,   126.736862,   88.2715302
   4072,   125.248154,   88.1838074
   4073,   123.761047,   88.0953979
   4074,   122.273224,   88.0072632
   4075,   120.786964,   87.9184799
   4076,   119.301559,    87.829361
   4077,   117.816498,    87.740097
   4078,   116.331551,    87.650795
   4079,   114.846634,   87.5614777
   4080,    113.36174,   87.4721527
   4081,   111.876846,   87.3828278
   4082,   110.391937,   87.2935028
   4083,   108.907013,   87.2042007
   4084,   107.422089,    87.115036
   4085,   105.937172,   87.0267334
   4086,   104.452301,   86.9408569
   4087,   102.967613,   86.8591156
   4088,   101.483368,   86.7828217
   4089,   156.282852,   88.5451889
   4090,   154.663742,   88.6062622
   4091,   153.134521,   88.6082764
   4092,   151.631836,   88.5688095
   4093,   150.154114,    88.497818
   4094,   148.695221,    88.405098
   4095,   147.241791,   88.3019104
   4096,   145.782166,   88.1969986
   4097,   144.309372,   88.0953369
   4098,   142.830338,   87.9953995
   4099,   141.350754,   87.8953323
   4100,    139.87114,   87.7951431
   4101,   138.389648,   87.6956024
   4102,   136.904617,   87.5972366
   4103,   135.421646,    87.497757
   4104,   133.937698,   87.3982468
   4105,   132.459869,    87.295929
   4106,    130.99025,    87.189949
   4107,   129.527527,   87.0807953
   4108,    128.05809,   86.9741287
   4109,   126.580307,   86.8707581
   4110,   125.092575,   86.7714691
   4111,   123.611244,   86.6694794
   4112,   122.125542,   86.5691833
   4113,   120.647552,   86.4658051
   4114,    119.16581,   86.3638382
   4115,   117.689713,   86.2596893
   4116,   116.215073,   86.1549683
   4117,   114.740807,   86.0500946
   4118,    113.26664,   85.9451904
   4119,   111.792496,   85.8402863
   4120,   110.318344,   85.7354126
   4121,   108.844162,      85.6306
   4122,   107.369972,   85.5260544
   4123,   105.895752,   85.4224548
   4124,   104.421532,   85.3209534
   4125,   102.947357,   85.2226028
   4126,   101.473396,   85.1273956
   4127,   101.445709,   81.8330765
   4128,   101.425163,    80.194252
   4129,    101.40271,   78.5442123
   4130,   101.379715,   76.8831482
   4131,   101.357346,   75.2269745
   4132,   101.336502,    73.587616
   4133,   101.317871,   71.9528656
   4134,   101.301933,   70.3041687
   4135,   101.288994,   68.6542587
   4136,   101.279205,    67.008316
   4137,   101.272644,   65.3559265
   4138,   101.269592,   63.7004662
   4139,   101.269699,   62.0774918
   4140,   102.890564,   81.9601517
   4141,    102.84967,   80.3350067
   4142,   102.805099,   78.7053223
   4143,    102.75946,   77.0705032
   4144,   102.715027,    75.435463
   4145,   102.673592,   73.8036957
   4146,   102.636513,   72.1713943
   4147,   102.604767,   70.5330582
   4148,   102.578964,   68.8908844
   4149,   102.559372,    67.247551
   4150,    102.54628,   65.6051254
   4151,   102.540016,   63.9722023
   4152,   102.540298,   62.3619919
   4153,   104.334984,   82.0923157
   4154,   104.273804,   80.4840927
   4155,   104.207291,   78.8737335
   4156,   104.139221,   77.2595673
   4157,   104.072922,   75.6422882
   4158,   104.011063,    74.022522
   4159,   103.955681,   72.3989716
   4160,   103.908218,   70.7699738
   4161,   103.869583,   69.1360092
   4162,    103.84021,   67.4993362
   4163,   103.820381,   65.8649292
   4164,   103.810966,   64.2433014
   4165,   103.811325,   62.6421471
   4166,   105.779144,   82.2279358
   4167,   105.697708,   80.6376953
   4168,   105.609352,   79.0461197
   4169,   105.518982,   77.4506531
   4170,   105.430954,   75.8501434
   4171,   105.348785,   74.2440338
   4172,   105.275177,   72.6317139
   4173,   105.212067,   71.0127563
   4174,   105.160645,   69.3877029
   4175,   105.121422,   67.7586212
   4176,   105.095016,    66.131897
   4177,   105.081985,    64.516716
   4178,    105.08181,   62.9198761
   4179,    107.22319,   82.3655853
   4180,   107.121483,   80.7937012
   4181,   107.011337,   79.2206726
   4182,   106.898743,    77.643219
   4183,   106.789062,   76.0591888
   4184,   106.686661,   74.4674149
   4185,   106.594887,   72.8673859
   4186,   106.516159,   71.2591629
   4187,   106.451965,   69.6434937
   4188,   106.403008,   68.0227661
   4189,   106.369843,   66.4030762
   4190,   106.353531,   64.7940674
   4191,   106.352631,    63.200943
   4192,   108.667145,   82.5042877
   4193,   108.545189,   80.9509277
   4194,   108.413277,   79.3963852
   4195,   108.278503,   77.8366928
   4196,   108.147217,   76.2690506
   4197,   108.024612,   74.6918945
   4198,   107.914711,   73.1046448
   4199,   107.820404,   71.5075607
   4200,   107.743469,   69.9016495
   4201,   107.684708,   68.2893982
   4202,   107.645111,   66.6774139
   4203,   107.625679,   65.0748901
   4204,   107.624146,   63.4861374
   4205,   110.111069,    82.643486
   4206,   109.968849,   81.1087494
   4207,   109.815186,   79.5726776
   4208,   109.658249,   78.0306549
   4209,   109.505379,    76.479393
   4210,   109.362602,   74.9169617
   4211,   109.234596,   73.3427124
   4212,   109.124718,   71.7569962
   4213,   109.035034,   70.1609802
   4214,    108.96656,   68.5574722
   4215,   108.920334,   66.9529266
   4216,   108.897995,   65.3570175
   4217,     108.8965,    63.773819
   4218,   111.554947,   82.7828979
   4219,   111.392487,   81.2668457
   4220,   111.217087,   79.7492447
   4221,   111.037994,    78.224884
   4222,   110.863541,   76.6899719
   4223,   110.700607,   75.1423187
   4224,    110.55452,   73.5811615
   4225,   110.429085,   72.0069199
   4226,   110.326675,    70.420929
   4227,   110.248398,   68.8260803
   4228,   110.195656,   67.2290955
   4229,    110.16983,   65.6390152
   4230,   110.169189,   64.0619049
   4231,   112.998825,   82.9224091
   4232,   112.816109,   81.4250565
   4233,   112.618965,   79.9259415
   4234,   112.417732,     78.41922
   4235,   112.221725,   76.9006729
   4236,   112.038643,   75.3678131
   4237,   111.874466,   73.8197937
   4238,   111.733482,   72.2570724
   4239,   111.618332,   70.6811371
   4240,   111.530342,   69.0950928
   4241,   111.470734,   67.5053024
   4242,   111.441521,   65.9209824
   4243,   111.439987,   64.3477325
   4244,   114.442688,   83.0619583
   4245,   114.239716,   81.5833206
   4246,   114.020836,   80.1026917
   4247,   113.797455,   78.6136246
   4248,   113.579895,   77.1114349
   4249,   113.376678,   75.5933762
   4250,   113.194412,   74.0585098
   4251,   113.037888,   72.5073318
   4252,   112.910034,   70.9414978
   4253,    112.81221,   69.3641663
   4254,   112.746071,   67.7818527
   4255,   112.712578,   66.2026291
   4256,   112.709595,   64.6326752
   4257,   115.886551,   83.2015228
   4258,   115.663322,   81.7416077
   4259,   115.422707,   80.2794647
   4260,   115.177185,   78.8080521
   4261,    114.93808,   77.3222198
   4262,   114.714714,   75.8189697
   4263,   114.514374,   74.2972565
   4264,     114.3423,    72.757637
   4265,   114.201721,    71.201889
   4266,   114.094254,   69.6334229
   4267,   114.021111,   68.0582581
   4268,   113.984032,   66.4846039
   4269,    113.97876,    64.917572
   4270,   117.330406,    83.341095
   4271,   117.086937,   81.8999023
   4272,    116.82457,   80.4562454
   4273,   116.556915,   79.0024872
   4274,   116.296249,     77.53302
   4275,   116.052734,   76.0445709
   4276,    115.83432,   74.5360184
   4277,   115.646713,   73.0079575
   4278,   115.493439,    71.462326
   4279,   115.376175,   69.9026184
   4280,   115.296753,   68.3350525
   4281,   115.255875,   66.7670288
   4282,    115.24675,   65.2026367
   4283,   118.774269,   83.4806595
   4284,   118.510544,    82.058197
   4285,    118.22644,   80.6330338
   4286,   117.936646,   79.1969223
   4287,   117.654419,   77.7438126
   4288,   117.390778,   76.2701721
   4289,   117.154282,   74.7747803
   4290,   116.951134,   73.2582855
   4291,   116.785133,   71.7227478
   4292,   116.658234,    70.171875
   4293,   116.572067,   68.6116714
   4294,   116.526237,   67.0488052
   4295,   116.511414,   65.4865341
   4296,   120.224609,   83.6177216
   4297,   119.935776,   82.2158737
   4298,   119.628723,   80.8096695
   4299,   119.316475,   79.3913193
   4300,   119.012619,   77.9546051
   4301,   118.728821,   76.4957809
   4302,   118.474243,   75.0135651
   4303,   118.255547,   73.5086212
   4304,   118.076836,   71.9831848
   4305,    117.94017,   70.4410858
   4306,   117.846939,   68.8881454
   4307,    117.79554,   67.3304749
   4308,   117.776497,   65.7717743
   4309,   121.672562,   83.7556915
   4310,   121.361305,   82.3734131
   4311,   121.031296,   80.9861832
   4312,   120.696442,   79.5856705
   4313,   120.370872,   78.1653748
   4314,   120.066879,   76.7213821
   4315,   119.794205,   75.2523346
   4316,   119.559959,   73.7589493
   4317,   119.368515,   72.2436066
   4318,    119.22197,   70.7102432
   4319,   119.120926,   69.1643829
   4320,   119.062698,   67.6118317
   4321,   119.037209,   66.0566559
   4322,   123.127617,   83.8907852
   4323,   122.788902,   82.5301132
   4324,   122.434586,   81.1623993
   4325,    122.07666,   79.7799149
   4326,    121.72921,   78.3761139
   4327,   121.404968,   76.9469757
   4328,   121.114174,   75.4910965
   4329,    120.86438,   74.0092773
   4330,   120.660179,   72.5040283
   4331,    120.50351,   70.9793396
   4332,   120.393997,   69.4404602
   4333,   120.326736,   67.8926849
   4334,   120.288635,   66.3395996
   4335,   124.579025,    84.027298
   4336,   124.216675,   82.6867142
   4337,    123.83828,   81.3384476
   4338,     123.4571,   79.9740601
   4339,   123.087631,   78.5867996
   4340,   122.743057,   77.1725388
   4341,   122.434128,   75.7298431
   4342,   122.168755,   74.2595978
   4343,   121.951797,   72.7644424
   4344,   121.784927,   71.2484283
   4345,   121.666687,   69.7166367
   4346,   121.590118,   68.1741104
   4347,   121.540955,   66.6247635
   4348,   126.037796,   84.1607208
   4349,   125.646027,   82.8426285
   4350,   125.242386,   81.5142746
   4351,   124.837646,   80.1680908
   4352,    124.44603,   78.7974091
   4353,   124.081055,   77.3980408
   4354,   123.753937,   75.9685364
   4355,   123.472954,   74.5098495
   4356,   123.243172,   73.0247879
   4357,   123.066086,   71.5174866
   4358,   122.939034,   69.9929657
   4359,   122.853554,   68.4562912
   4360,   122.794907,   66.9118958
   4361,   127.487381,   84.2978821
   4362,   127.072945,   82.9994354
   4363,   126.645767,   81.6902466
   4364,   126.217834,   80.3620834
   4365,   125.804092,   79.0079193
   4366,   125.418655,   77.6234131
   4367,    125.07325,    76.207077
   4368,   124.758278,   74.7705841
   4369,   124.528183,   73.2882767
   4370,   124.344772,    71.787384
   4371,   124.210258,   70.2696228
   4372,   124.116783,   68.7390976
   4373,     124.0485,   67.2002716
   4374,   128.936005,   84.4363403
   4375,   128.499863,   83.1565247
   4376,   128.048859,    81.866188
   4377,   127.597473,   80.5559006
   4378,   127.161392,   79.2181854
   4379,   126.755295,   77.8484879
   4380,   126.386894,   76.4479446
   4381,   126.045425,   75.0294952
   4382,   125.807571,   73.5534363
   4383,   125.619522,   72.0581055
   4384,   125.479523,   70.5466003
   4385,   125.380737,   69.0224609
   4386,   125.308739,   67.4902344
   4387,   130.367126,    84.580162
   4388,   129.919876,   83.3153534
   4389,   129.449097,   82.0424423
   4390,   128.975342,   80.7495117
   4391,   128.517014,   79.4280396
   4392,   128.090057,   78.0730286
   4393,   127.701256,   76.6865692
   4394,   127.362015,   75.2680969
   4395,   127.092461,   73.8128891
   4396,   126.892479,   72.3273773
   4397,   126.746155,   70.8230743
   4398,   126.643394,   69.3057098
   4399,   126.569794,   67.7804642
   4400,   131.829285,   84.7157898
   4401,   131.346741,   83.4716415
   4402,   130.849747,   82.2176208
   4403,   130.351776,   80.9423599
   4404,   129.870407,   79.6371231
   4405,   129.422028,     78.29673
   4406,   129.003189,   76.9324722
   4407,   128.654999,   75.5182343
   4408,   128.375641,   74.0704269
   4409,   128.163574,   72.5942917
   4410,   128.009521,   71.0979919
   4411,   127.902946,   69.5879822
   4412,   127.829132,   68.0702057
   4413,   133.250824,    84.858017
   4414,   132.763885,   83.6288147
   4415,   132.246857,   82.3923798
   4416,   131.725464,   81.1344299
   4417,   131.220734,   79.8452606
   4418,   130.750351,   78.5193558
   4419,   130.319305,   77.1611099
   4420,   129.951965,   75.7613754
   4421,    129.65657,   74.3246689
   4422,   129.430893,   72.8585052
   4423,   129.267822,   71.3707428
   4424,   129.156921,    69.868515
   4425,   129.084045,   68.3587494
   4426,   134.693909,   84.9937744
   4427,   134.184021,   83.7838593
   4428,   133.642792,   82.5659714
   4429,   133.096619,   81.3254852
   4430,   132.567703,   80.0523224
   4431,   132.073303,   78.7416229
   4432,   131.626495,   77.3926163
   4433,   131.236893,   76.0072479
   4434,   130.927734,   74.5794525
   4435,    130.69014,   73.1215668
   4436,   130.517838,   71.6415253
   4437,   130.401276,   70.1466293
   4438,   130.328629,   68.6447754
   4439,   136.143951,   85.1266174
   4440,    135.60614,   83.9371796
   4441,   135.037872,   82.7384033
   4442,   134.465454,   81.5155182
   4443,   133.911453,   80.2583237
   4444,   133.393951,   78.9616547
   4445,   132.919235,    77.629303
   4446,   132.517395,   76.2509155
   4447,    132.16626,    74.846344
   4448,   131.932587,   73.3875809
   4449,   131.755173,    71.911644
   4450,   131.630524,   70.4219208
   4451,   131.556305,   68.9230347
   4452,   137.593567,   85.2590866
   4453,   137.027649,   84.0898132
   4454,   136.431503,   82.9100876
   4455,   135.832077,   81.7047348
   4456,   135.252319,   80.4634094
   4457,   134.707962,   79.1825638
   4458,   134.213852,   77.8612671
   4459,   133.783905,   76.4978638
   4460,   133.436447,   75.0918655
   4461,   133.151855,   73.6580811
   4462,   132.977448,   72.1826401
   4463,   132.847305,   70.6960754
   4464,   132.766251,   69.2001495
   4465,   139.040588,   85.3921356
   4466,   138.447266,   84.2424469
   4467,   137.823334,   83.0814285
   4468,    137.19664,   81.8934021
   4469,   136.590149,   80.6681519
   4470,   136.017761,   79.4040909
   4471,   135.501541,   78.0942383
   4472,   135.055267,    76.739563
   4473,   134.684509,   75.3444366
   4474,   134.402222,   73.9115448
   4475,   134.203522,   72.4480743
   4476,   134.060364,   70.9678574
   4477,   133.970306,   69.4761047
   4478,   140.484055,   85.5262833
   4479,    139.86467,   84.3954315
   4480,    139.21344,   83.2526855
   4481,   138.559525,    82.081749
   4482,   137.923737,   80.8742981
   4483,   137.328125,   79.6229172
   4484,   136.787643,   78.3261261
   4485,   136.321625,   76.9810944
   4486,   135.938782,   75.5926208
   4487,   135.644302,   74.1664124
   4488,    135.42865,   72.7114944
   4489,   135.271912,   71.2379761
   4490,   135.172424,    69.751152
   4491,   141.929993,   85.6592255
   4492,   141.282379,   84.5478973
   4493,   140.602936,   83.4236298
   4494,   139.920822,   82.2702103
   4495,   139.258987,   81.0778961
   4496,   138.636215,   79.8415527
   4497,   138.074768,   78.5557404
   4498,   137.591217,   77.2198105
   4499,   137.193756,   75.8391113
   4500,   136.883911,   74.4208527
   4501,   136.652679,   72.9738312
   4502,   136.482605,   71.5070953
   4503,   136.373749,   70.0256119
   4504,    143.37825,   85.7910156
   4505,   142.700851,   84.6997452
   4506,    141.99234,   83.5942001
   4507,    141.28212,   82.4579315
   4508,   140.592834,   81.2814636
   4509,   139.945129,   80.0588531
   4510,   139.363266,    78.783638
   4511,   138.861633,   77.4570694
   4512,   138.447556,   76.0849915
   4513,   138.121582,   74.6750107
   4514,   137.875443,   73.2356567
   4515,    137.69252,   71.7756729
   4516,   137.574585,   70.2997284
   4517,   144.817871,   85.9258041
   4518,   144.115616,   84.8524628
   4519,   143.379944,   83.7646713
   4520,   142.642044,   82.6453094
   4521,   141.925308,   81.4847107
   4522,   141.254669,   80.2743835
   4523,   140.651978,   79.0099335
   4524,   140.131058,   77.6933441
   4525,   139.699234,    76.330452
   4526,    139.35704,   74.9288788
   4527,   139.096588,   73.4970856
   4528,   138.901428,   72.0438156
   4529,   138.774857,   70.5735626
   4530,   146.235367,   86.0672073
   4531,   145.519211,   85.0070496
   4532,   144.761719,   83.9345245
   4533,   143.998123,   82.8310699
   4534,   143.256531,   81.6846542
   4535,   142.563019,   80.4866486
   4536,   141.938644,   79.2336273
   4537,   141.397583,   77.9276657
   4538,   140.947617,   76.5744095
   4539,   140.589508,   75.1814499
   4540,   140.315445,   73.7573166
   4541,   140.108765,   72.3109589
   4542,   139.974243,   70.8468018
   4543,   147.642197,   86.2063217
   4544,   146.912613,   85.1575699
   4545,   146.134659,   84.0986633
   4546,   145.346893,   83.0097809
   4547,   144.581177,   81.8771744
   4548,   143.864578,     80.69207
   4549,   143.218323,   79.4512634
   4550,   142.657242,   78.1566315
   4551,   142.189667,   76.8136444
   4552,   141.816528,   75.4298706
   4553,   141.529999,   74.0140533
   4554,   141.313049,   72.5754547
   4555,   141.171844,   71.1185913
   4556,   149.048019,   86.3296967
   4557,   148.296356,   85.2918549
   4558,   147.493607,   84.2459717
   4559,   146.679962,   83.1715164
   4560,   145.889343,   82.0534363
   4561,   145.149551,   80.8824692
   4562,   144.482117,   79.6551819
   4563,   143.902313,   78.3731995
   4564,   143.418839,   77.0418396
   4565,   143.032715,   75.6687622
   4566,   142.735962,   74.2630234
   4567,   142.511215,   72.8343582
   4568,   142.365952,   71.3874359
   4569,   150.452606,   86.4210815
   4570,   149.664825,   85.3924408
   4571,   148.827866,   84.3596497
   4572,   147.983307,   83.3008575
   4573,   147.165756,   82.1994019
   4574,   146.402893,   81.0450134
   4575,   145.715958,   79.8337173
   4576,   145.120117,   78.5668945
   4577,   144.624054,   77.2498398
   4578,   144.228699,   75.8904724
   4579,   143.925858,    74.498291
   4580,   143.697998,   73.0836029
   4581,    143.55365,   71.6512985
   4582,   151.853592,   86.4594498
   4583,   151.007202,   85.4376526
   4584,   150.120667,   84.4196548
   4585,      149.237,    83.379921
   4586,   148.389526,   82.2989731
   4587,   147.603973,   81.1649933
   4588,   146.900253,   79.9734192
   4589,   146.292664,   78.7255402
   4590,   145.789337,   77.4269028
   4591,   145.390839,   76.0858917
   4592,   145.088821,   74.7126312
   4593,   144.865753,      73.3181
   4594,   144.730652,   71.9075317
   4595,   153.250397,   86.4178925
   4596,    152.30658,    85.404007
   4597,   151.348083,   84.4069443
   4598,   150.414856,   83.3929062
   4599,   149.533722,   82.3378677
   4600,   148.726379,    81.228775
   4601,   148.009964,   80.0610275
   4602,   147.396912,   78.8364639
   4603,   146.894089,   77.5612564
   4604,   146.501434,   76.2445374
   4605,   146.210602,   74.8972244
   4606,   146.004349,   73.5312195
   4607,    145.89122,   72.1525192
   4608,   154.636017,   86.2604294
   4609,   153.530151,   85.2678528
   4610,   152.474243,   84.3071213
   4611,   151.480316,   83.3284149
   4612,   150.563171,    82.305069
   4613,   149.736969,   81.2243195
   4614,   149.014587,   80.0835876
   4615,   148.405273,      78.8862
   4616,    147.91391,   77.6395874
   4617,    147.53949,   76.3538589
   4618,   147.273972,   75.0410309
   4619,   147.101166,   73.7142563
   4620,   147.032501,   72.3802185
   4621,   40.6764793,   12.4911747
   4622,   40.6731377,   62.4874115
   4623,   97.2500076,   2.87041044
   4624,   94.1603012,   3.01015091
   4625,   90.7246857,   2.83294845
   4626,   87.6183853,   3.01523376
   4627,   83.9732361,   2.95900011
   4628,   80.9465942,   2.82210779
   4629,   77.7429276,   2.81141949
   4630,   74.7305145,   2.90050888
   4631,   71.6715012,   2.96669102
   4632,   68.6092148,   2.87051678
   4633,   65.6185913,   2.79375648
   4634,   62.6451111,     2.874367
   4635,   59.6161766,   2.90617943
   4636,   56.6050758,   2.83725572
   4637,   53.3615494,   2.87014985
   4638,   50.0023918,   2.96246362
   4639,    46.616703,   2.94152355
   4640,   43.4022675,   2.85413527
   4641,   40.3941078,   2.86705995
   4642,   37.3721886,   2.89690948
   4643,     34.27174,   3.08602428
   4644,   31.3401108,   2.93875504
   4645,   28.3214283,   3.00814342
   4646,    25.264719,   2.93881321
   4647,   22.2503853,   2.82221675
   4648,   19.0500908,   2.82282734
   4649,    16.024168,    2.9610436
   4650,   12.3815002,   3.01797271
   4651,   9.26433754,   2.80357862
   4652,   6.03987885,   2.63734794
   4653,   2.92487717,   2.78950191
   4654,   97.0644531,   5.95945835
   4655,   93.5274506,   6.34053087
   4656,   90.5376892,   6.23561382
   4657,   87.6022186,   6.08273935
   4658,    84.532608,   5.94523287
   4659,   80.9884949,   5.97338343
   4660,   77.9186172,   6.15203285
   4661,   74.9925079,   6.15343523
   4662,   71.7443542,   6.14257908
   4663,   68.5627136,   6.13019848
   4664,   65.6161652,   6.38547134
   4665,   62.6409721,   6.17613173
   4666,   59.3922272,   6.20646906
   4667,   56.4393997,    6.2399354
   4668,   53.2710533,   6.09870625
   4669,   50.1469803,   5.87165451
   4670,   46.4865341,   6.46263981
   4671,   43.4693871,   6.48829317
   4672,   40.7016068,   6.35430908
   4673,   37.2641487,    6.4118042
   4674,   34.5775795,   6.30265188
   4675,    31.397234,   6.25376463
   4676,   28.3456173,   6.23768282
   4677,   25.0233955,   6.61015701
   4678,    22.001812,   6.17888594
   4679,   19.0013542,   5.98027611
   4680,   15.4308033,   5.94115877
   4681,   12.3763342,   6.05994272
   4682,   9.32314873,   6.21897602
   4683,   6.15513086,   6.07334185
   4684,   2.76578951,   6.13120174
   4685,   97.1525803,   9.06555843
   4686,   93.6395874,    9.3173418
   4687,   90.4212646,   9.25914192
   4688,   87.4609833,   9.34317207
   4689,   84.4570465,   9.40472603
   4690,   81.1539841,   9.44565105
   4691,   78.1727753,   9.58202362
   4692,   75.0520172,   9.37131882
   4693,    71.834816,   9.59052181
   4694,   68.7053375,   9.27768135
   4695,   65.7078094,    9.0149889
   4696,   62.5320816,   9.66357327
   4697,   59.4028511,   9.71672249
   4698,   56.2667694,   9.74886513
   4699,   53.1309662,   9.39382076
   4700,   50.2455978,   9.40681267
   4701,   46.8208542,   9.72229862
   4702,   44.0036087,   9.43807983
   4703,   40.4928741,   9.73177814
   4704,   37.6036987,   9.34664726
   4705,   34.3938446,   9.37128735
   4706,   31.3719444,   9.35437107
   4707,   28.3049068,   9.42115307
   4708,    25.088398,    9.5434103
   4709,   21.8546391,   9.19746685
   4710,   19.1793709,   9.26860237
   4711,    15.206151,   9.25809193
   4712,   12.5452223,   9.27323723
   4713,   9.60118294,    9.6030159
   4714,   6.29254055,   9.38691616
   4715,   2.81264615,   9.28398132
   4716,   97.1381912,   12.0942717
   4717,   93.7245331,   12.2928209
   4718,     90.48526,   12.6645708
   4719,   87.3168335,   12.3903284
   4720,   84.5661774,   12.3665342
   4721,   81.2315979,   12.5116682
   4722,   78.2545471,   12.2819033
   4723,   74.9667282,   12.6092453
   4724,   71.8050842,   12.4894037
   4725,   68.6503754,   12.6519346
   4726,   65.7205505,   12.4206972
   4727,   62.6243935,   12.5996962
   4728,   59.3902168,   12.4630871
   4729,     55.92033,   12.6996899
   4730,   53.1140366,   12.5529795
   4731,   49.9749908,   12.4664078
   4732,   46.9740791,   12.1662378
   4733,   43.9792366,   12.6318617
   4734,   37.2092552,   12.5659237
   4735,   34.1373711,   12.5724812
   4736,   31.2785625,   12.5326529
   4737,    28.202301,    12.273037
   4738,   25.0543633,   12.4743385
   4739,   21.9283581,   12.6932993
   4740,   18.9359665,   12.6549025
   4741,   15.4636106,    12.339632
   4742,   12.6405573,   12.6163139
   4743,   9.33326244,   12.5892143
   4744,   6.08415318,   12.3949337
   4745,   3.01346135,   12.3823719
   4746,   96.9094009,   15.0514364
   4747,    93.795784,   15.3067684
   4748,   90.6725388,   15.3720665
   4749,   87.4965668,   15.5950756
   4750,   84.2932816,   15.9214897
   4751,   80.9873199,   15.3378716
   4752,   78.0901489,   15.1376858
   4753,   74.9236832,   15.5283899
   4754,   72.0688705,   15.6361074
   4755,   68.4717941,   15.7645407
   4756,   65.4322205,   15.4902191
   4757,   62.2727966,   15.6244535
   4758,   59.5026512,   15.5891151
   4759,   56.6014519,   15.5625572
   4760,   52.7684937,   15.6864672
   4761,   49.8467102,   15.5236368
   4762,   46.6098862,   15.5817032
   4763,   97.1996765,   18.7267265
   4764,   93.9301147,   18.7946701
   4765,   90.7516708,   19.0994358
   4766,   87.5253448,   18.8026619
   4767,   84.6969452,   18.8815536
   4768,   81.3874054,   19.0270882
   4769,   78.0481796,   18.7965565
   4770,   75.0701065,   18.8744316
   4771,   71.7886887,   19.1135216
   4772,   68.4861374,   18.8637981
   4773,    65.610527,   19.0590477
   4774,    62.676815,   18.5895367
   4775,   59.1199036,   19.1168957
   4776,   56.2343636,   18.6896763
   4777,   53.1178627,   19.1172085
   4778,   49.9290237,   19.2371769
   4779,   97.0427704,   21.4679356
   4780,   94.0389252,    22.122654
   4781,   90.8657761,    21.768589
   4782,   87.6713638,   21.9839916
   4783,   84.5292587,   21.8344822
   4784,   81.3248825,   21.8531284
   4785,   78.1463394,   21.8605652
   4786,   74.9850845,   21.9330959
   4787,   71.7707901,   21.9945507
   4788,   68.6464996,   21.8503056
   4789,   65.6196518,   21.9013786
   4790,   62.4803009,   21.9125748
   4791,   59.3082924,   21.9205189
   4792,   56.2394829,     21.90201
   4793,   53.2903404,   21.7999268
   4794,    97.054306,   25.0653267
   4795,    93.836113,   25.2343788
   4796,   90.7456741,   24.8431473
   4797,   87.3714142,   24.8536282
   4798,   84.5121155,    24.712759
   4799,   81.2981949,   25.1223392
   4800,   78.1240234,   24.8787136
   4801,    74.884346,    24.722086
   4802,   71.8921661,    24.915308
   4803,   68.5812378,   24.8187561
   4804,   65.8200073,   24.8608208
   4805,   62.4732094,   24.7993793
   4806,   59.3526917,   24.8039818
   4807,   56.1140289,   24.6780415
   4808,   53.1437683,   25.0248051
   4809,   96.8810577,   28.3968983
   4810,    93.997757,   27.8908901
   4811,   90.8351135,   28.0502987
   4812,   87.6579285,   28.0092735
   4813,   84.5130768,   27.9186516
   4814,   81.1688156,   28.2544956
   4815,   78.0690308,   28.1285534
   4816,   75.2255859,   28.2441292
   4817,   72.0168762,   27.9327164
   4818,   68.8710022,   27.9843426
   4819,   65.2671051,   28.1100101
   4820,   62.4126015,     27.80937
   4821,   59.4878883,   27.8389854
   4822,   56.4521217,   28.3363361
   4823,   53.0202217,   28.0830574
   4824,   96.5239563,   31.4304867
   4825,   94.1595917,   31.4379387
   4826,   90.8700104,   31.3377705
   4827,   87.4521255,   31.2017937
   4828,    84.356781,   31.1714554
   4829,   81.1335983,   30.9587669
   4830,   78.1671829,    31.041893
   4831,   75.2728958,   31.3909531
   4832,   71.7974854,   31.2407589
   4833,   68.5894547,    31.061161
   4834,   65.3048019,   31.1178818
   4835,   62.3638229,   31.1957493
   4836,   59.5654984,   31.1275368
   4837,   55.8855286,   31.6009674
   4838,   52.8346481,   31.0008583
   4839,   49.8678589,   30.8678799
   4840,   96.4754486,   34.4856606
   4841,   94.0211182,    34.280117
   4842,   90.6801453,   34.5943451
   4843,   87.6769791,   34.3895226
   4844,   84.5128174,   34.4872589
   4845,   81.1345062,   34.5516052
   4846,   78.2157593,   34.6254272
   4847,   75.3012085,   34.4377441
   4848,   71.8253632,   34.2881317
   4849,   69.0261078,   34.3894882
   4850,   65.5796051,   34.0246315
   4851,   62.3621483,   34.5546684
   4852,   59.3759499,    34.437458
   4853,   56.2055244,   34.5449753
   4854,   52.7044563,   34.3497925
   4855,   49.8294678,   34.4752884
   4856,   46.6170807,   34.3819733
   4857,   96.9088593,   37.6491661
   4858,   93.9645767,    37.428524
   4859,   90.8787689,   37.4025116
   4860,   87.9807434,    37.490036
   4861,   84.5192795,   37.4684296
   4862,   81.3171921,   37.5007477
   4863,   78.2223282,   37.5420189
   4864,   75.0977249,   37.4551315
   4865,   71.9173737,    37.277565
   4866,     68.50177,   37.3821716
   4867,   65.4390793,   37.3219681
   4868,   62.3498497,   37.4190826
   4869,   59.3194351,   37.4085274
   4870,   55.8681564,   37.3919144
   4871,   53.1007423,    37.454689
   4872,   49.9452667,   37.5290985
   4873,   46.8915939,   37.7209167
   4874,   44.0209274,   37.2638397
   4875,   40.6725998,   37.5005569
   4876,   37.1603203,   37.4281845
   4877,   34.0703545,   37.4144058
   4878,   31.2497177,   37.4214096
   4879,     28.36096,   37.4393768
   4880,   25.0603752,   37.5533295
   4881,   21.8664093,   37.2387924
   4882,   18.9488411,   37.2256622
   4883,   15.9908772,   37.4215012
   4884,   12.8573999,   37.6738205
   4885,   9.27834415,   37.5431328
   4886,   6.14572573,   37.3617973
   4887,   2.87379718,    37.355114
   4888,   2.79356647,   34.3814774
   4889,   6.37801027,   34.3894386
   4890,   9.02412605,    34.382946
   4891,   12.5502129,   34.3983765
   4892,    15.796298,    34.368824
   4893,   18.8780746,   34.3580818
   4894,   21.8969536,   34.3459358
   4895,   25.2318802,   34.3121529
   4896,   28.1604271,   34.2485466
   4897,   31.2296734,   34.5172195
   4898,   97.0904617,   40.6702309
   4899,   93.8330688,   40.6695518
   4900,   90.8065567,   40.8107643
   4901,   87.5374756,    40.900589
   4902,    84.547699,   40.6518669
   4903,   81.5058899,   40.4710197
   4904,   78.3225708,   40.3105125
   4905,   75.0592194,   40.5593719
   4906,   71.7442398,   40.1569672
   4907,   68.6254883,   40.1153107
   4908,   65.6641006,    40.666153
   4909,   62.4709702,   40.3504143
   4910,   59.6394234,   40.4614906
   4911,   56.0925407,   40.4150772
   4912,    53.045742,   40.5887527
   4913,   50.1861572,   40.5578384
   4914,   46.9167023,   40.8571815
   4915,    44.086216,   40.4716492
   4916,   40.4659653,   40.2758827
   4917,   37.4784355,   40.6539803
   4918,   34.2366333,   40.5704994
   4919,   31.3700047,   40.5773239
   4920,    28.305954,   40.7790642
   4921,   24.6865273,   40.8239365
   4922,   21.7497253,   40.6010208
   4923,   18.9329967,    40.450798
   4924,    15.586133,   40.7174721
   4925,   12.5087757,   40.6744804
   4926,   9.27277088,   40.6204758
   4927,    6.1597209,   40.6089287
   4928,   2.90463161,     40.38414
   4929,   96.5653839,   43.9042931
   4930,   94.1685791,   43.8056602
   4931,   91.0080032,   43.8208733
   4932,   87.6323013,   43.7667694
   4933,   84.6679001,   43.4883957
   4934,   81.0215454,   43.4400444
   4935,    77.992981,    43.671463
   4936,   75.0054016,   43.9484863
   4937,   72.1018295,   43.6488037
   4938,   68.7995224,   44.0625763
   4939,   65.3842926,   43.8220367
   4940,   62.4592094,   43.7099762
   4941,   59.5245781,   43.5212059
   4942,   55.8751755,   43.8148499
   4943,   53.1596947,   43.7596436
   4944,   50.2339439,   43.8261871
   4945,   47.3168526,   43.6003113
   4946,   43.7163811,    43.402092
   4947,   40.5061684,   43.7333374
   4948,   37.0663986,   43.5446434
   4949,   34.2636681,   43.6721687
   4950,   31.3923988,   43.6759224
   4951,   28.3720131,   43.7338066
   4952,   24.9663601,   43.8060493
   4953,   21.7896271,   43.7919502
   4954,   18.6717415,   43.9710884
   4955,   15.7866278,   43.5614891
   4956,   12.4693069,   43.8403206
   4957,   9.23438454,   43.7051201
   4958,   6.16076899,   43.5147858
   4959,    2.8339808,   43.3902588
   4960,   96.4790344,   47.0209236
   4961,   93.9979553,   46.8798141
   4962,   90.7595291,   47.1582222
   4963,   87.7610092,    46.918354
   4964,   84.6094131,    46.950676
   4965,   81.1220245,   47.0513458
   4966,   78.2184525,   47.1078987
   4967,   75.2835388,   46.8997612
   4968,     71.72052,   47.0817108
   4969,   68.8214874,   46.8736725
   4970,   65.2900848,   46.7563171
   4971,   62.3785248,   47.0255394
   4972,   59.2263031,   46.8311539
   4973,   56.1231956,   46.5092163
   4974,   53.2558327,   46.7382126
   4975,   50.0459366,   46.7996826
   4976,   47.0245171,   46.6132469
   4977,   43.7114716,   47.0821838
   4978,   40.6762199,   46.5465355
   4979,   37.3462563,   46.8165398
   4980,   34.3216782,   46.8605843
   4981,   31.4021492,   46.8379517
   4982,   28.1358643,     46.87994
   4983,   24.9931107,   46.6902313
   4984,   21.7312908,   46.6077271
   4985,   18.9304409,   46.9234886
   4986,   15.6994143,   46.7001648
   4987,    12.727973,   46.9452324
   4988,   8.95544338,    46.891552
   4989,   6.07627964,   46.5710869
   4990,   2.85956001,   46.6117935
   4991,   96.8559723,   50.2145844
   4992,   93.7496185,   49.9990463
   4993,   90.9860535,   50.0408058
   4994,   87.8213577,   49.9748459
   4995,   84.4905548,   49.9203911
   4996,   81.3392105,   50.0028305
   4997,    78.211113,   50.0178566
   4998,   75.0905304,   49.9540558
   4999,   71.6851807,   50.0190926
   5000,   68.7851257,   50.0832977
   5001,   65.7240143,   49.9513855
   5002,   62.2902679,   49.8468704
   5003,    59.367424,   50.0172729
   5004,   56.0295868,   49.7964745
   5005,   53.1246147,   49.9097748
   5006,   50.1103706,   49.9460602
   5007,   47.0612679,   49.9422989
   5008,   44.0081291,   50.1066895
   5009,   40.4657555,   50.1380997
   5010,   37.5618858,   50.1492882
   5011,    34.118103,   50.1038055
   5012,   31.3962135,   49.9870529
   5013,   28.2260647,   50.0866089
   5014,    24.935997,   50.0212898
   5015,   21.9212074,   50.2329788
   5016,   18.7411518,   50.0813446
   5017,   15.4368362,   50.0293083
   5018,   12.2742805,   50.0542488
   5019,   9.02549839,   49.8681755
   5020,   6.05582905,   49.9988213
   5021,    2.9154563,   49.9992256
   5022,    97.257782,   53.0994911
   5023,    93.880661,   53.1597595
   5024,   90.7480469,   53.0024796
   5025,   87.5112228,   53.0438881
   5026,   84.4399338,   52.8168221
   5027,   81.4220276,   52.8848839
   5028,   78.2164764,   53.1284485
   5029,     75.03685,   53.2023354
   5030,   71.7597122,   52.9850044
   5031,   68.7584305,    53.218132
   5032,   65.8293915,   53.4324684
   5033,   62.5982437,   53.2976265
   5034,   59.3495102,   53.1671028
   5035,   56.1514206,   53.2274513
   5036,   53.0805817,   53.1552925
   5037,   50.1114044,   53.1737709
   5038,    46.964901,   53.3842392
   5039,   44.1697655,   53.0844727
   5040,   40.5636787,   53.4847794
   5041,   37.5192375,   53.2037468
   5042,   34.4988747,    52.787178
   5043,   31.3169289,   53.1695442
   5044,   28.1529198,   53.0644646
   5045,   24.8956547,   53.3030586
   5046,   22.1893806,   53.2811584
   5047,   18.6399174,   52.9384575
   5048,   15.5843792,   53.3670082
   5049,   12.6156826,   53.3171272
   5050,   9.10152531,   53.2611923
   5051,   6.09952211,    53.446888
   5052,   2.86172485,   53.3920937
   5053,   96.4801636,   56.3754158
   5054,   94.1218872,   56.4579964
   5055,   90.8083572,   56.3837242
   5056,   87.3682938,    55.912159
   5057,   84.4820099,    56.391037
   5058,   81.4402695,   56.2392578
   5059,   78.4235458,   56.2061424
   5060,   75.0209656,   56.0206375
   5061,   72.1183319,   56.3165627
   5062,   68.8472366,   56.3457108
   5063,   65.9321899,   56.3872261
   5064,    62.526989,   56.4355545
   5065,   59.4546127,   56.2426414
   5066,   56.0813751,    56.122509
   5067,   53.1704178,   56.3884048
   5068,   49.9750175,   56.0984268
   5069,   47.1357002,   56.4203606
   5070,   43.5605927,   56.4501495
   5071,   40.2194748,   56.5978889
   5072,   37.2971992,   56.4092903
   5073,   34.5355415,    56.329174
   5074,   31.1493645,   56.0743637
   5075,   28.0241852,   56.2248802
   5076,   24.9167366,   56.5272636
   5077,   22.0175686,    56.418232
   5078,   18.7901764,   56.4859772
   5079,   15.5957823,   56.3727341
   5080,   12.4401255,   56.3498764
   5081,    9.2494688,   56.3123398
   5082,   6.15067673,   56.4790535
   5083,   2.83016443,   56.6145401
   5084,   96.9362106,   59.3944283
   5085,   93.6834869,   59.3716164
   5086,   90.7792053,   59.3283272
   5087,   87.7618942,    59.521862
   5088,   84.2400742,   59.3588257
   5089,   81.3284073,   59.5754738
   5090,   78.1880875,   59.3205261
   5091,   75.2113419,   59.4954567
   5092,   71.6669693,   59.5439644
   5093,   68.8104477,   59.6820259
   5094,   65.9633636,   59.4520226
   5095,   62.5024452,   59.4998932
   5096,   58.9949493,   59.3883591
   5097,   56.0580597,   59.7297211
   5098,   53.1065865,    59.427166
   5099,   50.3047104,   59.4237976
   5100,    46.911293,   59.6686974
   5101,   44.0917625,   59.3516808
   5102,   40.5612869,   59.6644745
   5103,   37.3251648,   59.6550407
   5104,   34.3654823,    59.410202
   5105,   31.3605518,   59.3519821
   5106,   28.3560677,   59.3687973
   5107,    24.992054,    59.384819
   5108,   21.7857285,   59.4800606
   5109,   18.6344032,   59.6072426
   5110,   15.6905413,   59.1520767
   5111,   12.4469223,    59.324688
   5112,   9.25685692,   59.3555717
   5113,    6.1324029,   59.3946571
   5114,   2.89083362,   59.6222572
   5115,   97.0070496,   62.6189156
   5116,   93.7723541,     62.71521
   5117,   90.7237091,   62.4466972
   5118,    87.542244,   62.4078217
   5119,   84.3897781,   62.4351006
   5120,   81.3071747,   62.5205803
   5121,   78.2071152,   62.4578094
   5122,   75.0351028,   62.4555702
   5123,   71.8320999,   62.5112076
   5124,    68.731636,   62.5676689
   5125,   65.6549377,   62.4757538
   5126,    62.631691,   62.4940681
   5127,   59.3399811,   62.3645821
   5128,    55.896492,   62.6922417
   5129,   53.1121368,   62.5539093
   5130,   49.9780617,   62.4625664
   5131,   46.9766731,   62.1558151
   5132,    43.986496,   62.6226845
   5133,   37.1791229,   62.5928574
   5134,   34.1280937,   62.5786247
   5135,   31.2736492,   62.5292282
   5136,   28.1927795,   62.2670212
   5137,   24.9478493,   62.4917259
   5138,   21.8296013,   62.8196831
   5139,     18.97435,   62.7003632
   5140,    15.345129,   62.7638321
   5141,   12.5684261,   62.2508774
   5142,    9.2474556,   62.4476585
   5143,   6.10063982,   62.6065826
   5144,     2.883708,   62.6243896
   5145,   96.9630966,   65.5865707
   5146,   93.7493057,   65.6467209
   5147,   90.7025375,   65.7147903
   5148,   87.2383041,   65.5542297
   5149,   84.3504333,   65.6088104
   5150,   81.2878189,   65.6342392
   5151,   78.1953049,   65.6287766
   5152,   75.0498581,   65.6412201
   5153,   71.9455795,   65.5077362
   5154,   68.4741135,   65.5419998
   5155,   65.4459991,   65.4418488
   5156,   62.2766876,   65.6136856
   5157,   59.5036697,   65.5809937
   5158,   56.6027336,   65.5576706
   5159,   52.7668037,   65.6837311
   5160,    49.841362,   65.5249329
   5161,   46.6067619,   65.5829163
   5162,   96.9600983,   68.3223724
   5163,   94.0680695,   68.6856155
   5164,   90.6808853,    68.538063
   5165,    87.619194,   68.5931168
   5166,    84.411644,   68.7673645
   5167,   81.2668762,   68.7258377
   5168,   78.1845627,   68.7747421
   5169,   74.7777252,   68.7991714
   5170,    71.902626,   68.9977341
   5171,   68.7903671,   68.6799316
   5172,   65.6436462,   69.0320511
   5173,   62.6806068,   68.5860367
   5174,    59.121109,    69.114418
   5175,   56.2353973,   68.6867218
   5176,    53.115448,   69.1157227
   5177,   49.9263611,   69.2393417
   5178,   97.1978149,   71.7599869
   5179,    93.900116,    71.886261
   5180,   90.7848129,   71.5166626
   5181,   87.6268463,   72.0358505
   5182,   84.5220032,   72.0705719
   5183,   81.2376328,   71.7063522
   5184,   78.2946243,   71.7647095
   5185,   75.0056305,   71.8075562
   5186,   71.7810211,   71.9944839
   5187,   68.6773148,   71.8425217
   5188,   65.6273117,    71.897644
   5189,   62.4768486,   71.9112854
   5190,   59.2940865,    71.915535
   5191,   56.2315369,   71.8968353
   5192,   53.2902718,   71.7991333
   5193,   96.7068634,   74.5278778
   5194,   93.4855194,   74.9488373
   5195,   90.6256866,    74.802803
   5196,   87.6849747,   75.0756531
   5197,   84.4599609,   75.0949783
   5198,   80.9876785,   74.9572754
   5199,   78.2750931,   75.2287445
   5200,   75.3763428,   74.8478317
   5201,   71.9276199,   75.0004349
   5202,   68.5760422,   74.8299866
   5203,   65.8193893,   74.8614731
   5204,   62.4496803,   74.8049622
   5205,   59.2667847,   74.8110657
   5206,    56.059536,   74.6570816
   5207,   53.1360321,   75.0175705
   5208,   96.6987686,   78.4855881
   5209,   93.7328339,   78.0346146
   5210,   90.3134995,   78.2329865
   5211,   87.4596634,    78.266922
   5212,    84.156189,   78.1523132
   5213,   81.3348694,    78.154747
   5214,   78.3951263,   78.0929565
   5215,   75.0203857,   77.9390564
   5216,   71.5939255,   78.0341721
   5217,   68.8289413,   77.9975586
   5218,   65.2657394,   78.1156998
   5219,   62.3804932,   77.8569565
   5220,   59.1517715,   78.1657486
   5221,   56.1969032,    78.174469
   5222,   53.0040779,   78.0654602
   5223,   96.8732758,   81.7017059
   5224,   93.8638153,   81.1858063
   5225,   90.7273407,   81.5324097
   5226,   87.8764267,   80.9787064
   5227,   84.1476364,   81.2009125
   5228,   81.2546387,   81.5000229
   5229,   78.1531219,   81.1997604
   5230,   75.0553894,   81.1389008
   5231,   72.0861664,   81.1458282
   5232,   68.5972748,   81.0566711
   5233,   65.3319016,   81.1452866
   5234,   62.4503098,   81.2781448
   5235,   59.5301743,   81.4683075
   5236,    56.162838,   81.2517242
   5237,   52.8513107,     80.96978
   5238,   49.8697701,   80.8735352
   5239,   96.9303131,   84.5504608
   5240,     94.17099,   84.4805298
   5241,   90.5559082,   84.4213181
   5242,   87.8003998,   84.0486679
   5243,   84.4712524,   84.2467041
   5244,   81.3279343,   84.4919662
   5245,   78.1869736,   84.3705139
   5246,   75.0477448,   84.2639008
   5247,   71.6332321,   84.3109512
   5248,   68.8674011,     84.35112
   5249,   65.6819992,   84.2441177
   5250,   62.5583839,   84.5828552
   5251,   59.6802177,   84.3626633
   5252,    56.476162,    84.349411
   5253,   52.7307053,   84.3666763
   5254,   49.8377151,   84.5167465
   5255,   46.5011406,   84.7041779
   5256,    97.197258,   87.5090485
   5257,   93.3941879,   87.6161728
   5258,   90.6598892,    87.144516
   5259,   87.2207794,   87.3545609
   5260,   84.2714767,   87.6101074
   5261,   81.3533249,   87.6477432
   5262,   78.1472092,   87.3066711
   5263,   75.0273666,   87.2226562
   5264,   71.9038544,   87.2171249
   5265,   68.7930527,   87.4705429
   5266,   65.7043762,   87.3486404
   5267,    62.676548,   87.5590363
   5268,   59.0786934,    87.385582
   5269,   55.9737053,   87.5167618
   5270,   53.1845741,   87.8372955
   5271,   49.9491386,   87.5746231
   5272,   46.7759857,   87.7703857
   5273,   44.1552658,   87.3160019
   5274,    40.671936,   87.5008926
   5275,   37.1643486,    87.425148
   5276,   34.0764656,   87.4117126
   5277,   31.2474575,   87.4178925
   5278,   28.3210354,   87.4131851
   5279,   25.0692921,   87.4255295
   5280,   21.9609203,   87.2920456
   5281,   18.6716213,   87.1673965
   5282,   15.4772739,   87.5953751
   5283,   12.6233692,   87.3647766
   5284,   9.26873112,   87.4585571
   5285,   6.04483223,   87.6193695
   5286,   3.03074026,   87.6273727
   5287,   2.96173549,   83.9756317
   5288,   5.94277239,   84.5690231
   5289,   9.25992966,   84.7944717
   5290,   12.3376808,   84.5253372
   5291,   15.6230335,    84.528038
   5292,   18.8116283,   84.3259201
   5293,   21.8758316,   84.3032532
   5294,   25.2389984,   84.2835617
   5295,   28.1627808,   84.2422791
   5296,   31.2344913,   84.5134506
   5297,   96.9940491,   90.5585251
   5298,   93.7584381,   90.6926193
   5299,   91.0821381,   90.2089233
   5300,   87.5180435,   90.4584045
   5301,   84.4325562,   90.9283295
   5302,   81.3076477,   90.7124252
   5303,   78.0378113,   90.6994629
   5304,   74.9725037,   90.6980362
   5305,   71.8639374,   90.7246017
   5306,   68.7955322,   90.7309494
   5307,   65.5430984,   90.8139267
   5308,   62.5662613,   90.7280807
   5309,   59.4646568,   90.3160858
   5310,   56.2574387,   90.6420898
   5311,   53.1539955,   90.4654007
   5312,   50.1581306,   90.5508041
   5313,   46.8403435,   90.5265579
   5314,   43.6904411,   90.5080643
   5315,   40.4216919,   90.2727966
   5316,   37.4680824,    90.661499
   5317,   34.2427292,   90.5886002
   5318,   31.3489494,   90.6023026
   5319,   28.3223534,    90.626442
   5320,   25.1086464,   90.3596268
   5321,   22.0174122,    90.604393
   5322,   18.9050808,   90.4328461
   5323,    15.546092,   90.5834198
   5324,   12.5991116,   90.6728439
   5325,   9.58078098,   90.4565048
   5326,    5.9682107,   90.6327133
   5327,   3.01447749,    90.906723
   5328,   97.0126953,    93.325737
   5329,   93.8783951,   93.5670471
   5330,   90.7249908,   93.4312057
   5331,   87.6385498,   93.7531738
   5332,   84.6806564,   93.8378754
   5333,   80.9746323,   93.8493576
   5334,   77.8986359,   93.8257523
   5335,   74.9777832,     93.82444
   5336,   71.7536926,   93.8435669
   5337,   68.6039658,   93.8757629
   5338,   65.5847321,   93.8863754
   5339,   62.6109962,   93.8886642
   5340,   59.4027939,   93.8412094
   5341,   56.4515114,   93.8564301
   5342,    53.265316,   94.1434021
   5343,   50.1508026,   93.8391037
   5344,   46.8444862,   93.7581635
   5345,   43.5211029,   93.5762253
   5346,   40.5895576,   93.6974335
   5347,   37.0813828,   93.6621399
   5348,   34.3065872,   93.8168869
   5349,   31.5010796,    93.840416
   5350,   28.2911263,   93.8541412
   5351,   25.0361309,   93.8387604
   5352,   22.0959568,   93.8560181
   5353,   19.0146027,   94.0263138
   5354,    15.469285,   94.0558319
   5355,   12.4334326,   93.9237442
   5356,   9.75625038,   93.8657608
   5357,   6.10928726,   93.8966599
   5358,   2.95461941,   94.0977325
   5359,   96.8305435,   96.6756821
   5360,   93.8632355,   97.1560364
   5361,   90.9184418,   97.1518936
   5362,   87.8898544,   97.1688995
   5363,   84.6491013,   97.1270905
   5364,   80.9973755,   97.1337128
   5365,   77.7505646,   97.1711655
   5366,   74.7373886,   97.0801926
   5367,   71.6790237,   97.0088882
   5368,   68.6467896,    97.098259
   5369,    65.619873,   96.9443741
   5370,   62.6245384,   97.1160583
   5371,   59.6210213,   97.1087723
   5372,   56.5877991,    97.184906
   5373,   53.1307335,   97.2197723
   5374,   49.9301987,   96.9252014
   5375,   46.6515999,   96.9608078
   5376,   43.3800697,   97.1728058
   5377,   40.3272629,   97.1717529
   5378,    37.314621,   97.1836548
   5379,    34.362812,   97.2166367
   5380,   31.3969936,   97.1276855
   5381,   28.3307838,   97.0311737
   5382,   25.2696648,   97.0992966
   5383,   22.2570953,   97.1891251
   5384,   19.0532398,   97.1782379
   5385,   16.0267982,   97.0413513
   5386,   12.3875713,   96.9864349
   5387,   9.30558586,   97.1565399
   5388,    5.8456068,   96.9906082
   5389,   2.85706186,   97.2509613
   5390,   2.82286334,   80.9491501
   5391,   5.98176622,   80.9870529
   5392,   9.22341156,   80.7482529
   5393,   12.5712175,   81.2451248
   5394,   15.6160698,   81.2156677
   5395,   18.9245033,   81.2865829
   5396,   21.7863007,   81.4770584
   5397,   24.9094315,   81.1157227
   5398,   27.9913712,   81.2337036
   5399,   2.81730962,   77.7479477
   5400,   6.14614391,   77.9069443
   5401,   9.23884392,   78.0837326
   5402,   12.7555256,   77.9325104
   5403,   15.6866989,   78.2086868
   5404,   18.8158703,   78.3003082
   5405,   22.0021305,    78.128067
   5406,   25.2854366,   78.0112381
   5407,   27.9113789,   78.1885223
   5408,   2.91765952,   74.7379532
   5409,   6.16790724,   74.9815063
   5410,   9.27894115,   75.0035934
   5411,   12.5113201,   75.0544815
   5412,   15.6927013,   75.0730743
   5413,   18.8535614,   74.8537216
   5414,   21.8764381,   74.8755875
   5415,   25.1806965,   75.0038605
   5416,   28.3633232,   74.9918976
   5417,   2.98990941,   71.6795654
   5418,    6.1527319,   71.7560577
   5419,   9.26683807,   71.8761292
   5420,   12.7470112,   71.9349213
   5421,   15.6250229,   72.1400681
   5422,    18.523798,   71.8446426
   5423,   22.3211613,   71.7489777
   5424,   25.2350998,    72.047493
   5425,   27.9027042,   71.7923813
   5426,    2.9012723,   68.6473541
   5427,   6.11985683,   68.6064529
   5428,   9.25979805,   68.7899704
   5429,   12.7478294,    68.821785
   5430,   15.5979662,   68.5464096
   5431,   18.4789886,   68.7107162
   5432,   21.9477253,   68.5846558
   5433,   25.1690197,   68.5861588
   5434,   28.0069942,   68.7242355
   5435,   3.05497241,   65.6204376
   5436,    6.0943346,   65.5922775
   5437,   9.00066948,   65.6187668
   5438,   12.5674324,    65.736084
   5439,   15.5894651,   65.6541824
   5440,   18.7635136,   65.6331863
   5441,   21.8984509,   65.7015152
   5442,   25.2497139,   65.6598282
   5443,   28.1566372,   65.7195587
   5444,   31.2385807,   65.4767609
   5445,   2.87057137,   31.3908253
   5446,   6.13119936,   31.4370708
   5447,   9.29451084,    31.307766
   5448,     12.52034,    31.401104
   5449,   15.9563303,   31.3188477
   5450,   18.9768505,   31.3243999
   5451,   21.7909622,   31.5087738
   5452,   24.8993549,   31.1317272
   5453,   27.9887409,    31.241293
   5454,   2.96672702,   28.3284912
   5455,   6.14637089,   28.2538567
   5456,   9.68835449,   28.0968342
   5457,   12.6658421,   28.4206161
   5458,   15.6720676,   28.2392101
   5459,   18.8356934,   28.3777618
   5460,    21.706995,    27.825386
   5461,   25.2856636,   28.0095024
   5462,   27.9139614,   28.2039852
   5463,   2.90043592,   25.2694473
   5464,   6.15432119,   25.0067253
   5465,   9.37181854,   24.9102306
   5466,   12.3905754,   24.8961124
   5467,   15.6340818,   25.0563736
   5468,   18.8975582,   24.8693295
   5469,   21.9854164,   24.8606186
   5470,   25.1947079,   25.0155468
   5471,   28.3660297,   25.0109863
   5472,   2.81128454,   22.2569065
   5473,   6.15181875,    22.081028
   5474,   9.58402538,   21.8604088
   5475,   12.4657335,   22.0788956
   5476,   15.4348392,   22.1269684
   5477,    18.431797,   21.7628307
   5478,   22.3240395,   21.7409573
   5479,    25.232748,   22.0601177
   5480,   27.9018593,   21.8018703
   5481,   2.82189202,   19.0526867
   5482,   5.97239971,    19.009697
   5483,   9.44858932,   18.8495579
   5484,   12.5243521,   18.7456646
   5485,   15.3539906,   18.6617432
   5486,   18.7324715,   18.5913773
   5487,   21.9699306,   18.5721245
   5488,   25.1710567,   18.5888119
   5489,   28.0075836,   18.7243748
   5490,   2.95831966,     16.02598
   5491,   5.94260597,   15.4664955
   5492,   9.40558815,   15.5431814
   5493,   12.3834715,   15.4998913
   5494,   15.5672445,   15.5073175
   5495,   18.8134613,   15.7238894
   5496,   21.9293346,   15.6977701
   5497,   25.2622375,   15.6613932
   5498,   28.1589928,     15.72089
   5499,   31.2398319,   15.4760523
   5500,   98.8262405,   56.4866219
   5501,   98.8561172,   48.3328743
   5502,   98.8522491,   44.0543175
   5503,   98.8262329,   34.4232483
   5504,   98.9137421,   37.1716118
   5505,   98.7527542,   52.3482094
   5506,   98.8426819,   31.5732517
   5507,   98.6479645,   28.6281147
   5508,   98.9020538,   26.2500401
   5509,    99.104248,    27.396204
   5510,   98.8281555,   30.1813221
   5511,   98.7812424,   53.7675858
   5512,   98.8751221,   50.9713326
   5513,   98.7492447,    41.319088
   5514,   98.8773956,    38.466526
   5515,   98.8601151,   35.8310051
   5516,    98.828598,    32.995491
   5517,   98.7233658,   39.8681641
   5518,    98.861763,   42.6942825
   5519,   98.8331451,   45.4765396
   5520,   98.8316269,   46.9109917
   5521,   98.9142532,   49.6742783
   5522,   98.8507919,   55.1300049
   5523,   98.7696762,   57.8579597
   5524,   98.5191803,   59.3563499
   5525,   98.5673141,   24.8576794
   5526,   1.35475302,   96.3738861
   5527,   1.37159026,   93.2925262
   5528,   91.7024994,   1.38355458
   5529,   94.8338394,    1.3858819
   5530,   97.9829254,   1.36810839
   5531,   96.2099609,   98.5320435
   5532,   93.2165909,    98.658699
   5533,   90.2380676,   98.6696091
   5534,   87.2166138,   98.6807938
   5535,   84.3668823,   98.8366699
   5536,   79.9559326,    98.701683
   5537,   76.9254684,   98.6723633
   5538,   73.9173126,   98.6328583
   5539,   70.9010696,   98.6217499
   5540,   67.9018555,   98.6477509
   5541,   64.8986359,   98.6245117
   5542,   61.9155235,   98.6498108
   5543,   58.9189301,   98.6594772
   5544,   55.8761749,   98.6906738
   5545,   53.0281143,   98.9268188
   5546,   48.5336533,   98.9968643
   5547,   45.6614494,   98.6408463
   5548,   42.5786972,   98.6752625
   5549,   39.5617142,   98.6754074
   5550,   36.5754433,   98.6906433
   5551,   33.6026001,   98.6959686
   5552,   1.32568884,   90.2773895
   5553,   88.8671951,   1.22261214
   5554,    1.5020113,   87.4500809
   5555,   85.9256592,   1.35742176
   5556,   1.45073521,   84.4522018
   5557,   81.2629013,   1.15627944
   5558,   1.28659606,   79.9434586
   5559,   72.4052353,   1.37247264
   5560,   75.4193802,   1.34083366
   5561,   1.32441521,   76.9249268
   5562,   1.36640513,   73.9174881
   5563,   1.37783885,   70.9012451
   5564,   1.35210526,   67.9020615
   5565,   1.37534714,   64.8987579
   5566,   1.35005653,   61.9154701
   5567,   1.34082699,   58.9209061
   5568,   1.32149506,   55.9049911
   5569,   1.16402757,   53.0653038
   5570,   1.64424288,   48.4181862
   5571,    1.3015461,   45.6054764
   5572,   1.33048785,   42.5830154
   5573,   1.35506272,   39.5817146
   5574,   1.32296169,   36.5882149
   5575,   1.30614412,   33.6066437
   5576,   78.4365158,   1.31007242
   5577,    35.088829,   98.7007828
   5578,   38.0629616,   98.6845551
   5579,   41.0670738,   98.6815186
   5580,   44.1039886,   98.6669312
   5581,    47.223423,   98.7194061
   5582,   49.9803772,   98.5496521
   5583,   51.7246323,    98.701622
   5584,   54.3295403,   98.7358704
   5585,   57.4079208,    98.679451
   5586,   60.4167976,   98.6499023
   5587,   63.4027557,   98.6510544
   5588,    66.401535,   98.6215897
   5589,   69.4005356,   98.6363449
   5590,   72.4105988,   98.6176987
   5591,   75.4230499,   98.6545029
   5592,    78.440834,   98.6843262
   5593,   81.2936554,   98.8396988
   5594,   82.8287964,   98.3704681
   5595,   85.7037888,   98.7003937
   5596,   88.7320709,   98.6784973
   5597,   91.7311478,   98.6693192
   5598,   94.6956024,   98.6314926
   5599,   97.8681488,   98.4564056
   5600,   1.30574679,   35.0986214
   5601,   1.34640992,   38.0827217
   5602,   1.34206796,   41.0826836
   5603,   1.31912553,   44.0957527
   5604,   1.16106975,   46.9330597
   5605,   1.24157059,   49.9985352
   5606,   1.64507747,   51.5828819
   5607,   1.29919231,   54.3973236
   5608,   1.32527506,    57.418251
   5609,   1.35000932,   60.4172974
   5610,   1.34885025,   63.4027481
   5611,   1.37823355,   66.4017487
   5612,   1.36338055,   69.4007492
   5613,   1.38172722,   72.4108124
   5614,   1.34410453,   75.4231339
   5615,   1.30854058,   78.4371033
   5616,   1.15556371,   81.2622757
   5617,   1.66905224,     82.70755
   5618,   1.36094165,   85.9258881
   5619,   1.24604321,   88.8930893
   5620,   1.37239385,   91.7626038
   5621,   1.36952078,   94.8296432
   5622,   1.36497164,   97.9875107
   5623,   96.3790131,   1.36162138
   5624,   93.2814865,   1.42543578
   5625,   90.2247696,   1.27911127
   5626,   87.4427795,   1.48711729
   5627,   84.4511185,   1.44656289
   5628,   82.7065887,   1.66781712
   5629,   79.9391251,   1.28512192
   5630,   76.9235077,   1.31913352
   5631,   73.9171677,   1.35925698
   5632,   14.0743704,   98.6427155
   5633,   11.1337118,   98.7776718
   5634,   8.30524349,   98.6135788
   5635,   5.18702698,    98.624115
   5636,   1.35704446,   14.0743055
   5637,   1.22133982,   11.1342649
   5638,   1.35996222,   8.32583332
   5639,    1.3930012,   5.28358173
   5640,   3.72560811,   98.6886215
   5641,   6.72644281,   98.5743408
   5642,   9.78219414,   98.7188339
   5643,   12.5582428,   98.5132446
   5644,   15.5488844,   98.5535889
   5645,   1.42029834,   3.69484544
   5646,   1.37022567,   6.80400372
   5647,   1.27113914,   9.78216362
   5648,   1.48642111,   12.5576448
   5649,   1.44624233,   15.5486012
   5650,   2.48505068,   98.7854156
   5651,   1.39040101,   2.03374481
   5652,   30.6122475,   98.6500015
   5653,   27.5951538,   98.6270981
   5654,   24.5806351,   98.6591949
   5655,   21.5634766,   98.6901093
   5656,   18.7370262,   98.8438339
   5657,   1.34938931,    30.611084
   5658,   1.37247396,   27.5947571
   5659,   1.34079742,   24.5806026
   5660,   1.31003034,    21.563385
   5661,   1.15622985,   18.7367992
   5662,   17.2933464,   98.3323669
   5663,   20.0608273,   98.7150345
   5664,   23.0764885,   98.6810303
   5665,   26.0829315,    98.640625
   5666,   29.1016083,   98.6291351
   5667,   32.1121445,   98.6773148
   5668,    1.6675868,    17.292944
   5669,   1.28505731,   20.0606518
   5670,   1.31908345,   23.0764389
   5671,   1.35923541,   26.0828209
   5672,   1.37016463,   29.1008358
   5673,   1.32285535,   32.1117668
   5674,   46.9356346,   1.19029212
   5675,   49.9958534,   1.26246881
   5676,   44.1001511,   1.33186305
   5677,   41.0893326,   1.33630347
   5678,   38.0863991,     1.347211
   5679,   35.0683784,   1.39273047
   5680,   32.0831108,   1.36798453
   5681,   29.0975494,   1.38388014
   5682,   26.0829697,   1.37059128
   5683,   23.0747681,    1.3256948
   5684,   20.0563526,   1.28657925
   5685,   15.5478716,   1.45026505
   5686,   12.5571108,   1.49348068
   5687,   9.77835941,   1.27187014
   5688,   6.77660704,   1.33445239
   5689,   3.78752923,   1.33990777
   5690,   54.3850555,    1.3036108
   5691,   57.4157104,   1.33143198
   5692,    60.418396,   1.35549724
   5693,   63.4118538,   1.32308757
   5694,   66.3933792,   1.30616152
   5695,   69.3889236,   1.34937024
   5696,   70.8991623,   1.37015069
   5697,   67.8882523,   1.32283759
   5698,   64.9014206,   1.30581689
   5699,   61.9173927,   1.34667242
   5700,   58.9171562,   1.34283197
   5701,   55.9001846,   1.32034695
   5702,   53.0547485,   1.16784251
   5703,   51.5728302,   1.65929806
   5704,    48.420681,   1.68372798
   5705,   45.6061859,   1.32196152
   5706,   42.5921593,   1.32977962
   5707,    39.590107,   1.33821034
   5708,   36.5834885,   1.36056912
   5709,    33.565712,   1.39424622
   5710,   30.5938625,    1.3748306
   5711,   27.5892334,   1.38681734
   5712,    24.577322,   1.34879458
   5713,   21.5625114,   1.30955648
   5714,   18.7374611,   1.15555298
   5715,   17.2921734,   1.66884875
   5716,   14.0757751,   1.35873747
   5717,   11.1320543,   1.22007811
   5718,   8.30409908,   1.34839034
   5719,   5.26835632,   1.33116305
   5720,   2.51608396,   1.23263097
   5721,   45.0135651,   64.3685379
   5722,    39.926609,   13.8023987
   5723,   39.9242897,   63.8041267
   5724,   36.6996307,   35.7090874
   5725,   41.5010834,   86.1188202
   5726,   38.3156242,   63.9125099
   5727,   38.3217621,   13.9051676
   5728,    41.506443,   36.1191483
   5729,   50.9120598,    22.532423
   5730,   50.9114761,    72.532486
   5731,   51.2782059,   77.6739502
   5732,   29.0928497,   77.3771057
   5733,   50.4852943,   20.9756126
   5734,   29.0478897,    76.070549
   5735,   36.7048149,   85.7080688
   5736,   45.0130615,   14.3715105
   5737,   35.2020798,   64.9194565
   5738,   43.1289444,   35.8981552
   5739,   41.4973335,     13.86481
   5740,   41.4969673,   63.8634415
   5741,   29.0910835,   72.6135712
   5742,   31.1638393,   81.9611588
   5743,   51.2777786,    74.161026
   5744,   48.7016029,   31.8407269
   5745,   48.6950531,   81.8569107
   5746,   48.7214088,   68.1869659
   5747,   36.7196388,   14.2856264
   5748,   32.2224808,   33.4125137
   5749,   29.3898335,   29.1012325
   5750,    48.122242,   16.7343655
   5751,   48.1175728,   66.7383423
   5752,    33.767128,   65.6777725
   5753,   35.2032623,    14.918704
   5754,   33.7577782,   84.3197098
   5755,   50.5182571,   29.2759094
   5756,   43.0958443,   85.8822098
   5757,   36.7150383,   64.2916641
   5758,   30.3092709,   19.4094181
   5759,   50.4836311,   70.9760513
   5760,   39.9205627,   36.1907387
   5761,   39.9203529,   86.1902237
   5762,   31.1616707,   31.9651775
   5763,   51.2785263,   27.6761055
   5764,   48.7175064,   18.1845837
   5765,    45.027523,   35.5656738
   5766,   43.1108437,     14.06007
   5767,   33.7681389,   15.6771402
   5768,   29.0906563,    22.621479
   5769,   51.2787323,   24.1621189
   5770,   30.3074093,   80.5881119
   5771,   32.2323112,   16.5864563
   5772,   29.0473328,    23.929678
   5773,   31.1645126,   68.0382156
   5774,   31.1653805,   18.0351067
   5775,   50.5248833,   79.2763672
   5776,   30.3083725,   69.4094162
   5777,   32.2268066,   83.4106445
   5778,   35.1854057,   35.0765572
   5779,   35.1927681,   85.0754776
   5780,   29.0943947,   27.3897171
   5781,   43.1124763,    64.057045
   5782,   29.3927498,   70.8937531
   5783,   29.3927422,   20.8962917
   5784,   32.2309799,   66.5865707
   5785,   29.0504246,   26.0828457
   5786,   38.3062592,    36.090744
   5787,   30.3044739,   30.5929317
   5788,   38.3081665,   86.0895844
   5789,   33.7560654,   34.3212967
   5790,   29.3927116,   79.0979462
   5791,   29.0470886,   73.9195557
   5792,   51.3537369,   25.8477306
   5793,   51.3528442,   75.8455887
   5794,   98.6683197,   23.3547153
   5795,   98.8243713,   18.7900925
   5796,    98.513855,   15.8760986
   5797,   98.6393356,   12.8019266
   5798,   98.6667786,   9.78297806
   5799,   98.6452713,   6.74066496
   5800,   98.6891479,   3.74423146
   5801,   98.3333435,   20.2293701
   5802,   98.7844162,   2.49655008
   5803,   98.6470261,   5.22173929
   5804,    98.665329,   8.26524067
   5805,    98.665184,    11.291728
   5806,   98.5878525,   14.3042259
   5807,   98.5904999,   17.4650593
   5808,   98.5618134,   21.9024334
   5809,   98.5773697,   94.1562271
   5810,   98.7399063,   87.4987717
   5811,   98.6082764,   72.4804153
   5812,   98.2390671,   85.8992004
   5813,   98.5696106,   67.5590973
   5814,   98.5329895,   80.8460846
   5815,   98.5962753,   92.5459061
   5816,    98.581665,   62.3436661
   5817,   98.6514816,   97.1837921
   5818,    98.547699,   90.9538803
   5819,   98.5404968,   82.4683685
   5820,   98.4871674,   79.2003326
   5821,   98.4161148,   75.7051392
   5822,   98.5235748,   69.2155838
   5823,   98.5205688,   65.9645615
   5824,   98.1836395,   64.1388168
   5825,   98.5643692,   70.8811417
   5826,   98.5188751,   74.0332642
   5827,   98.4059677,   77.4833374
   5828,   98.5050507,   84.0753021
   5829,   98.2480392,   89.1256561
   5830,   98.5611115,     95.77108
   5831,   98.7129974,   60.8698692
   5832,   48.1116829,   33.2597084
   5833,    48.097683,     83.33181
   5834,   27.7015095,   76.5149918
   5835,   27.7055683,   26.5356216
   5836,   27.6951656,   73.4704437
   5837,   27.6956367,   23.4873772
   5838,   39.0478287,    12.497138
   5839,   39.0210953,   62.5074997
   5840,   39.0202065,   37.4989243
   5841,   39.0208931,   87.4964142
   5842,   97.7858276,   36.6214714
   5843,   97.6634598,   44.7426071
   5844,   97.6588058,   35.1971855
   5845,   97.6231689,   51.4286919
   5846,   97.6250839,    57.115818
   5847,   97.6469345,   32.2520905
   5848,   97.7718201,   49.1543388
   5849,   97.6267319,   33.7181511
   5850,   97.6341324,   46.2255592
   5851,   97.6385193,   58.3280182
   5852,   97.5887756,   24.0078964
   5853,   86.5743332,   2.45859838
   5854,   13.4271088,   97.5419998
   5855,    2.4575398,   13.4258738
   5856,   2.46818995,   86.5786972
   5857,   13.4255524,   2.46235776
   5858,     44.70541,   85.4027176
   5859,   49.8687668,   82.6616211
   5860,   49.8702393,   32.6371689
   5861,   49.9163055,    17.406332
   5862,   49.9129562,   67.4079666
   5863,   48.1861763,   84.9906464
   5864,   48.1342316,   34.8777046
   5865,   48.1353683,    15.090457
   5866,   48.1311264,   65.0903778
   5867,   97.4251404,    66.866478
   5868,   97.2292175,   80.0851517
   5869,   97.4549561,   91.8566437
   5870,   97.6015015,   61.4467125
   5871,   35.4655075,   63.3910561
   5872,   35.4770699,   13.3804998
   5873,   35.4313812,   36.6137428
   5874,   33.9239159,   85.8581085
   5875,   52.4115677,   73.0435257
   5876,   35.4401703,   86.6121521
   5877,   29.4848881,   18.0049667
   5878,   52.4132004,   23.0451717
   5879,   33.9477005,   64.1336746
   5880,   29.4764328,   31.9867115
   5881,   33.9184036,   35.8619308
   5882,   52.5446053,   26.7015133
   5883,   33.9522781,   14.1310396
   5884,   29.4797935,   81.9819183
   5885,     29.48423,   68.0059128
   5886,   52.5365181,   76.6924667
   5887,   97.3100815,   83.2252884
   5888,    27.942028,   79.7270508
   5889,    27.941761,   29.7371349
   5890,   27.9405289,   20.2362537
   5891,   27.9406357,   70.2327652
   5892,   96.2877045,   32.9372826
   5893,   96.3009491,   45.4466133
   5894,   96.3172684,   57.9215393
   5895,   86.4380112,   3.68136311
   5896,   3.68656421,   86.4427719
   5897,   13.5670576,   96.3202591
   5898,   13.5612078,   3.68201208
   5899,   3.67934799,   13.5621996
   5900,   96.3555298,   23.8990116
   5901,    96.357872,   36.0727348
   5902,   96.1390381,   61.0027733
   5903,   96.3286057,   48.6198387
   5904,   35.6087418,   61.8273048
   5905,   35.6483803,   11.7866726
   5906,    96.129982,   66.9094009
   5907,   96.1375046,   91.8940811
   5908,   95.6990662,   83.3511429
   5909,   97.6502228,   47.7107544
   5910,   97.6991501,   30.8416824
   5911,   97.6629715,   55.7268295
   5912,   98.0080643,   50.2886467
   5913,   97.7432556,    43.324913
   5914,   97.8044586,   25.9800034
   5915,   26.8204403,   74.9957123
   5916,   26.8250027,   25.0161228
   5917,   53.9609604,   73.2447586
   5918,   53.9646072,   23.2489166
   5919,   95.5304642,   80.2211227
   5920,   39.8437614,   11.1422253
   5921,   2.33037591,   88.5125046
   5922,    2.2969172,   11.5129347
   5923,   11.5173206,   97.7026215
   5924,   88.4887009,   2.29893684
   5925,   11.5122366,    2.2996068
   5926,   39.8022957,   88.8518524
   5927,     39.81427,   61.1049576
   5928,   39.8136215,   38.8547325
   5929,   51.3433418,   81.8742142
   5930,   51.3378792,   31.8733807
   5931,   51.4743462,   68.2518921
   5932,   51.4778862,   18.2518959
   5933,   30.5176392,   83.3591919
   5934,   30.5197525,   16.6305504
   5935,    30.514164,   33.3627586
   5936,   32.5040359,   14.8890734
   5937,   32.4877739,   85.1002197
   5938,   30.5187798,   66.6313324
   5939,   32.5019112,   64.8890839
   5940,   32.4838562,   35.1028976
   5941,   29.0226631,   80.5257492
   5942,   26.6709881,   78.9120026
   5943,   26.6147099,   21.0475578
   5944,   29.0202484,   30.5318604
   5945,   26.6724873,   28.9248104
   5946,   26.6155529,   71.0394592
   5947,   95.9920197,   51.6114349
   5948,   38.2289734,   38.9118423
   5949,   38.1942215,   61.1194191
   5950,   38.2249298,   88.9095306
   5951,   38.2930527,   11.0853729
   5952,   29.0265961,   69.4532166
   5953,   29.0270023,   19.4542618
   5954,   47.0968018,   13.7185917
   5955,   47.4414558,   86.2963791
   5956,   47.0830917,   36.2133904
   5957,   47.0952988,   63.7143669
   5958,   42.3140717,   37.4183464
   5959,   42.3119202,   87.4438553
   5960,   42.3001175,   62.5313072
   5961,   42.2933807,   12.5386782
   5962,   28.0674496,   67.2238846
   5963,   28.0492973,   32.7429543
   5964,   28.0687561,   17.2243252
   5965,   28.0525475,   82.7366714
   5966,   97.0827866,   70.1192245
   5967,   97.3209686,   94.9374619
   5968,   97.7313843,    29.612402
   5969,   97.8273544,   42.0937653
   5970,   97.7880249,   54.4967575
   5971,   10.5266399,   2.22537541
   5972,   2.22650385,   10.5315638
   5973,   2.29730463,    89.532074
   5974,   10.5400505,   97.7652359
   5975,   89.4726562,   2.23355556
   5976,   96.5670853,   30.0157909
   5977,   96.6938858,   42.4455833
   5978,   96.5112228,   26.5698128
   5979,   3.52719951,   10.9312162
   5980,   10.9253464,   3.51958466
   5981,   10.9711761,   96.4702682
   5982,   3.55660701,   89.0699921
   5983,   89.0662384,   3.53241658
   5984,   96.3610687,   54.7823372
   5985,   29.7626076,     65.12854
   5986,   29.7681961,   34.8371391
   5987,   29.7648296,   15.1296034
   5988,   29.7694778,   84.8326721
   5989,   95.4767303,   37.5176392
   5990,   95.5596237,   25.1746998
   5991,   95.3815079,   50.0277596
   5992,   26.0072231,   73.5844803
   5993,    26.016428,   26.4382687
   5994,   31.1876049,   35.8546219
   5995,     31.19767,   64.1125717
   5996,   31.1889038,   85.8513107
   5997,   31.2005081,   14.1141825
   5998,   95.4110947,   33.9098282
   5999,    4.4719758,   12.3249426
   6000,   12.3188801,     4.464149
   6001,   12.3559046,   95.5325546
   6002,   4.46439505,   87.6767807
   6003,   87.6732025,   4.47388601
   6004,   95.4043274,   46.4564896
   6005,   95.4428482,   53.2526817
   6006,   95.6353073,   94.7583847
   6007,   95.6119461,   69.4271851
   6008,   26.0068684,   76.4283371
   6009,   26.0089912,   23.6006641
   6010,   95.3998108,   59.3595238
   6011,   95.3758545,   62.7047157
   6012,   32.6451988,   13.3350163
   6013,   32.6091309,   86.6394424
   6014,   26.6234913,   80.4187775
   6015,   26.6255112,   19.4702644
   6016,   26.6907883,   22.3995171
   6017,   32.6400719,   63.3354797
   6018,    32.606144,   36.6426163
   6019,   26.6210232,   30.4309006
   6020,    26.625061,   69.4668579
   6021,   26.6911488,   72.3868484
   6022,   41.3823929,   88.9104156
   6023,   41.4262962,   38.8823662
   6024,   39.1266594,   9.98144627
   6025,   51.3385506,    80.468689
   6026,   51.3386765,   83.5134125
   6027,   51.3306847,   33.4976578
   6028,   51.3310127,   30.4733429
   6029,   39.0381737,   90.0178757
   6030,   38.9875641,   59.7496872
   6031,   39.0618973,   40.0208702
   6032,   51.3950844,   66.5493393
   6033,   51.3983345,   16.5499821
   6034,   36.9151268,   10.9967461
   6035,   36.8222504,   88.9968185
   6036,    36.809967,   61.0965767
   6037,   36.8233109,   38.9987488
   6038,   43.1359367,   38.8498306
   6039,   43.1273842,   61.0436058
   6040,   43.0319824,   88.9519348
   6041,   43.0913582,   11.0701723
   6042,   26.6524181,   81.9641266
   6043,   26.7164326,   17.9301186
   6044,   95.3651352,   65.5747604
   6045,   26.6469803,   31.9751301
   6046,   26.7148647,   67.9283752
   6047,   95.3636551,   90.5497513
   6048,   95.5351868,   84.8812408
   6049,   41.4216347,   11.0907335
   6050,   41.4485054,   61.0630531
   6051,   95.1769638,   81.8590775
   6052,    34.279686,   10.9776869
   6053,   34.2504387,   61.0067101
   6054,   54.7403259,   21.8763714
   6055,   54.7374611,   71.8733521
   6056,   49.0149727,   13.8546419
   6057,   49.0764046,   86.1848679
   6058,   48.9936714,   36.1238594
   6059,   49.0126991,   63.8520508
   6060,   35.5587883,   38.2072372
   6061,   35.5623589,   88.2036514
   6062,   95.4616318,    43.071434
   6063,   95.3625107,   30.6751251
   6064,   95.3725357,   55.8472595
   6065,   97.9751663,   27.2035122
   6066,    35.706707,   60.2874756
   6067,   35.7906494,   10.1822395
   6068,    89.048027,   5.30090952
   6069,   5.22751474,   89.0350647
   6070,   94.7461395,   36.0390129
   6071,   96.2019806,   38.9731979
   6072,   11.0495319,   94.7199478
   6073,   10.9089231,   5.27963638
   6074,   5.31212854,    10.931263
   6075,   94.6768646,   48.5890617
   6076,   94.8237305,   32.8533325
   6077,   95.4023361,   34.9574699
   6078,   94.7858047,   45.3558197
   6079,   95.3773575,   47.5132256
   6080,     52.11203,   29.3435173
   6081,   52.1120224,   79.3286896
   6082,   94.6687012,   52.1564064
   6083,   94.7981415,   23.7686291
   6084,   26.7188225,   27.6224384
   6085,   5.19968796,   13.7607241
   6086,   94.6872253,   57.9751091
   6087,   13.7449446,   5.19172096
   6088,   13.7744818,    94.801506
   6089,   5.19082355,   86.2545319
   6090,   86.2383881,   5.20157719
   6091,   32.7535362,   61.7617607
   6092,    32.765007,    11.757349
   6093,   26.7152367,   77.6110153
   6094,   25.5402756,   79.5511932
   6095,   25.2743912,   20.3093185
   6096,   25.5332432,   29.5593853
   6097,   25.2747688,   70.3034134
   6098,   26.7490044,   83.5064621
   6099,   26.7746677,   16.4293633
   6100,   26.7434196,   33.5201492
   6101,   26.7704029,   66.4276199
   6102,   93.9350967,   82.8573227
   6103,   94.6271286,   61.6064529
   6104,   96.2337952,   64.1306839
   6105,   52.7736206,   82.7534561
   6106,   52.7446213,   32.7701683
   6107,    52.893486,   17.3151608
   6108,   52.8914871,   67.3130722
   6109,   24.4398708,   23.5935249
   6110,   24.3307762,   76.4792404
   6111,   54.0076561,   20.5304832
   6112,   55.4638023,   23.2460232
   6113,   54.0066643,   70.5287018
   6114,   55.4455872,   73.2362595
   6115,   96.2688293,   89.0711365
   6116,    39.298317,   41.3713074
   6117,   39.2619553,   91.3724976
   6118,   39.6628532,    58.335022
   6119,   96.3080063,   86.0664139
   6120,   39.3809738,   8.64376259
   6121,   94.6229095,   86.0646973
   6122,   44.7358017,   11.1260309
   6123,   94.4832993,   89.1638412
   6124,   44.7699013,   61.0875053
   6125,   44.6167831,   89.0777817
   6126,    44.801693,   38.6975861
   6127,   94.5373764,   64.1582794
   6128,   24.4273243,   73.5884476
   6129,   24.3798962,   26.4351254
   6130,   94.8219528,   26.5271282
   6131,    29.760561,   63.3031197
   6132,    29.786314,   36.5974274
   6133,   29.7656441,   13.3066893
   6134,    29.776123,   86.5895538
   6135,   48.3334236,   87.6544037
   6136,   48.2364388,   37.6169014
   6137,   48.3226547,   12.3752146
   6138,   48.3261375,   62.3683701
   6139,   51.4479561,   84.9237289
   6140,   51.4346581,    34.886219
   6141,   51.4658089,   65.1293869
   6142,   51.4683571,    15.131053
   6143,   47.6057358,    89.097847
   6144,   47.3578072,   39.1514015
   6145,   47.6936455,   60.9841232
   6146,   47.6645241,   11.0030127
   6147,   93.2487183,   61.1053162
   6148,   86.1009293,   6.85951281
   6149,   6.82626247,   86.1556091
   6150,   13.9127541,   93.1420975
   6151,    13.844121,     6.829072
   6152,   6.85823679,   13.8994961
   6153,   26.8148136,   85.0502625
   6154,   26.7986469,   14.8879395
   6155,    26.815876,    35.072258
   6156,   26.7868805,   64.8863831
   6157,   35.6625481,   39.8016548
   6158,   35.6630745,   89.8075562
   6159,   54.4442329,   17.9433308
   6160,   54.4437256,   67.9404373
   6161,   97.6352463,   38.8996353
   6162,   95.4564667,   44.3167648
   6163,   95.4859009,   41.5617828
   6164,   95.2002487,   29.1511726
   6165,   95.4314957,   31.8668327
   6166,   95.3958206,   56.9154625
   6167,   94.6796341,     38.92379
   6168,   93.3616104,   51.6540222
   6169,   95.8449707,   22.5282059
   6170,    34.178627,   88.9966431
   6171,    34.175499,   38.9948349
   6172,   4.54735851,   9.51699829
   6173,   9.67202282,   95.4363937
   6174,   90.4445801,    4.5452919
   6175,   50.7543106,   63.9093552
   6176,   93.1659927,   23.6537132
   6177,   50.7351227,   36.0876656
   6178,   24.1817894,   29.3128624
   6179,   24.2071571,   79.3361816
   6180,   50.7448997,    86.148674
   6181,   4.15787792,   14.9789734
   6182,   14.9693394,   4.15825367
   6183,   14.9829712,   95.8417664
   6184,   4.15963507,   85.0311432
   6185,   85.0203171,    4.1593976
   6186,   50.7552605,   13.9117136
   6187,   54.2122078,    32.200676
   6188,   54.3083649,    82.086731
   6189,   95.4824448,   27.7071819
   6190,     25.54842,    82.738266
   6191,   25.6392727,     17.14571
   6192,   25.5407047,   32.7593994
   6193,   25.6343937,   67.1435471
   6194,   23.5222511,    74.998497
   6195,   54.7386284,   24.3973007
   6196,   52.7842255,   20.5636177
   6197,    55.480484,   20.4717331
   6198,   54.7123108,   74.3829422
   6199,   52.7821846,   70.5628891
   6200,   55.4789352,   70.4688721
   6201,    53.699173,   79.4866028
   6202,   53.7205734,   29.5569916
   6203,   23.5966835,   24.9621029
   6204,   29.8155308,   88.2060013
   6205,   29.8811417,   11.6825314
   6206,   29.8445396,   38.2212067
   6207,   41.0291328,   8.06408405
   6208,   29.8774986,   61.6745567
   6209,     23.91926,   21.0220909
   6210,   23.9195213,   71.0177765
   6211,   41.2621841,   58.1163559
   6212,   45.6553001,   37.3250618
   6213,   45.8417435,   86.5757446
   6214,   40.9356689,    91.966423
   6215,   41.0021973,    42.004734
   6216,   92.7627335,   64.1519394
   6217,   92.3828964,   82.2058487
   6218,   95.3790817,   87.5818863
   6219,   32.8300552,   60.1481628
   6220,   92.7895355,   89.4945297
   6221,   32.8483391,   10.1398554
   6222,   92.9893875,   85.8155975
   6223,   45.6677094,   12.5195789
   6224,   45.6767807,    62.505249
   6225,   31.3453732,    10.939146
   6226,   56.9422913,   73.3072052
   6227,   31.3373737,   60.9364929
   6228,   56.9780273,   23.3203888
   6229,    93.154068,   48.4458656
   6230,   93.1985474,   35.9402924
   6231,   35.8451118,   58.7233162
   6232,   94.4679642,    54.739563
   6233,   35.8715134,   8.59856224
   6234,   23.7533474,   72.3826065
   6235,    23.759346,   22.3855782
   6236,   42.1676407,   40.4105911
   6237,   42.2324486,   59.5320206
   6238,   42.0361595,   90.4339828
   6239,    42.139801,   9.57304573
   6240,   52.5858803,   13.9978733
   6241,   96.7715912,   76.5164642
   6242,   97.3920975,   73.1104813
   6243,   52.5852318,   63.9954453
   6244,   52.5952225,   86.1304626
   6245,   52.5523262,   36.0191917
   6246,   23.5068989,   27.8201122
   6247,   93.1575165,   57.8313179
   6248,   23.5253277,   77.9243851
   6249,     86.36026,    97.570694
   6250,   97.4759293,   13.5672922
   6251,   20.7289429,   2.40199089
   6252,   2.39890218,   20.7324886
   6253,   20.7327538,    97.601326
   6254,   79.2859726,   97.5775681
   6255,   2.40085912,    79.270401
   6256,   79.2671738,   2.39903641
   6257,   55.0660896,   2.42852497
   6258,    54.992321,    97.614006
   6259,   2.42574692,   55.0804977
   6260,   44.9423409,   97.5245972
   6261,   2.42436481,   44.9225311
   6262,   44.9292526,   2.46467423
   6263,   51.6156502,   19.9346924
   6264,   94.4137573,   42.3082581
   6265,   51.6133423,   69.9347382
   6266,   89.4296036,   97.5678864
   6267,   57.0006409,    20.477005
   6268,    56.997261,   70.4732971
   6269,   86.3449554,   96.2010574
   6270,   20.7342319,   96.2685242
   6271,   3.73221326,   20.7335243
   6272,    20.724226,    3.7415719
   6273,   79.2658386,   3.73249125
   6274,   3.73730826,   79.2708893
   6275,   79.2846832,   96.2185974
   6276,   8.25864506,   95.8150787
   6277,   4.04016495,   8.14938354
   6278,   91.8018417,   4.09094763
   6279,    46.098835,   38.5461006
   6280,   96.1295853,   13.5684538
   6281,    3.7762742,   55.0957146
   6282,   3.77562475,   44.9089737
   6283,   55.0177917,   96.2835999
   6284,   55.0648079,   3.78957248
   6285,   44.9061546,   3.87057877
   6286,   44.9274597,   96.1763992
   6287,   89.3383636,   96.1842957
   6288,   14.6006527,   2.67877817
   6289,   2.68130016,   85.4010544
   6290,   94.3291779,   30.1416473
   6291,   95.4582138,   40.1597099
   6292,   92.3901291,   52.9550171
   6293,   7.72069883,   12.4924049
   6294,   12.4473476,   7.67403936
   6295,   12.5243406,   92.2908478
   6296,   87.5196609,   7.71124506
   6297,   7.65755892,   87.5527725
   6298,   53.9014702,   76.8125687
   6299,    53.947422,   26.8422928
   6300,   28.2776833,   85.7933578
   6301,   28.2388687,   14.1018448
   6302,    28.289156,   35.8100395
   6303,   28.2300663,   64.0994034
   6304,   92.2434387,   62.5099297
   6305,   92.2537384,   24.9167805
   6306,   32.7064629,   38.2078476
   6307,    32.707634,   88.2047043
   6308,   54.1650391,   16.3652744
   6309,   54.1647987,   66.3618088
   6310,   22.4630852,   76.5280075
   6311,   51.9167938,   21.4752407
   6312,   54.6569214,   19.3504868
   6313,   51.9154129,   71.4748077
   6314,   31.2970371,   89.0019608
   6315,   22.7100029,   26.3440266
   6316,   54.6560326,   69.3480911
   6317,   54.6396408,   28.2930412
   6318,   54.5500717,   78.2051544
   6319,   31.3110123,   39.0057182
   6320,   93.1615219,    38.784584
   6321,   24.1800117,   32.8716888
   6322,   24.1832848,   82.8381805
   6323,   54.4567757,   80.6791382
   6324,    54.400135,   30.8302784
   6325,   39.6855545,   7.28157711
   6326,   93.1451035,    42.385231
   6327,   49.2122917,   89.0490799
   6328,    57.763382,   21.9165077
   6329,   57.7462769,   71.9096603
   6330,   49.2593422,   10.9924383
   6331,   49.1719971,   39.0515442
   6332,   49.2866173,   60.9874649
   6333,   54.9398956,   75.7210464
   6334,   55.0063248,   25.7493744
   6335,   22.8588352,   73.4954681
   6336,    92.198616,   65.7504272
   6337,   22.8948898,   23.4862442
   6338,   51.6011124,   87.6100311
   6339,     51.68433,   62.5122414
   6340,   51.6819229,   12.5123167
   6341,   51.6601486,   37.4895477
   6342,   92.4628448,   37.3377151
   6343,   95.9274139,   72.7077103
   6344,   92.4138107,   49.5094223
   6345,   95.1858444,   77.3058624
   6346,   92.4429855,   90.8810577
   6347,   92.3590469,   80.5402679
   6348,    92.358963,   84.0835419
   6349,   54.0766296,   14.8786039
   6350,   54.1319809,   85.2147064
   6351,   54.0764694,   64.8751755
   6352,   53.9859543,   35.1659889
   6353,   32.7708588,   39.7818222
   6354,   92.3150177,   58.8566246
   6355,   32.7680702,   89.7948151
   6356,   42.7554474,   91.9492874
   6357,   29.9267559,   60.1363487
   6358,    42.899765,   41.9823418
   6359,   45.4936066,   87.9804459
   6360,   29.9166565,   10.1434412
   6361,    92.475502,    56.520401
   6362,   46.2243881,   11.0841656
   6363,   34.5220184,   7.80114269
   6364,   46.2619171,   61.0481148
   6365,   34.4981613,   57.8456993
   6366,   92.2667465,   34.5837898
   6367,    92.318634,    47.213932
   6368,   24.1375751,   69.6721344
   6369,   24.1392078,   19.6754131
   6370,   36.9926453,    7.7916503
   6371,   54.0063362,    33.714798
   6372,   54.1142998,   83.6707153
   6373,   37.2220078,   57.9672966
   6374,   95.5157623,   21.0400944
   6375,   92.4424362,   22.4229584
   6376,   97.5614014,   10.5691566
   6377,   97.5817871,   60.4140244
   6378,   23.7780857,   2.45867991
   6379,   2.43830371,   23.7841587
   6380,   23.7842484,   97.5618057
   6381,   76.2223892,   97.5469742
   6382,   2.44854379,   76.2220306
   6383,   76.2157745,   2.43839812
   6384,   98.0242157,   37.7616806
   6385,   58.1295738,   2.45371532
   6386,   58.1276627,   97.5608902
   6387,   2.44312191,   58.1366959
   6388,   41.8395386,   97.5854034
   6389,    2.4517777,   41.8693085
   6390,   41.8815308,   2.44293475
   6391,   24.2874641,   67.1150208
   6392,   24.2948704,   17.1170654
   6393,    4.4549098,   16.5279579
   6394,   16.5171108,    4.4567275
   6395,   16.5298729,   95.5445175
   6396,   4.45765114,   83.4823532
   6397,   83.4708252,   4.45615053
   6398,   92.4497986,   2.78505492
   6399,   92.4240646,    97.561348
   6400,    2.5267303,   92.5255432
   6401,   7.53945446,   2.67366958
   6402,   7.57283115,   97.1867905
   6403,   2.69551826,   7.60808706
   6404,   97.5334549,   7.51552963
   6405,   88.9907227,   6.95035553
   6406,   11.1050854,   93.0788956
   6407,   6.98468161,   10.9985151
   6408,   26.8022423,    2.5805974
   6409,   2.54537725,   26.8068085
   6410,   26.8074532,   97.4539185
   6411,   73.1997528,   97.4331665
   6412,   2.56542993,   73.2002335
   6413,   73.1931763,    2.5453949
   6414,   4.47492266,   90.2001648
   6415,   9.48744583,   4.51084995
   6416,   57.7202034,    24.808836
   6417,   57.6291237,   74.7996826
   6418,   61.1415634,   2.51779485
   6419,    61.139431,   97.4893188
   6420,   2.51037884,   61.1396599
   6421,   38.8118362,   97.5773697
   6422,   2.51705575,   38.8586998
   6423,   38.8726044,   2.47120333
   6424,   97.4977112,   4.40272999
   6425,    95.692215,     2.569175
   6426,    95.341011,   97.4550552
   6427,   2.54105973,   95.6754608
   6428,   4.56069565,   2.65567231
   6429,    4.3569293,   97.4758759
   6430,    2.8396306,   4.54847193
   6431,   29.8378754,   2.57675624
   6432,   2.53061414,   29.8580513
   6433,   29.8618641,   97.4670181
   6434,    70.155983,    97.446701
   6435,    2.5525701,   70.1564407
   6436,   70.1419678,   2.53057718
   6437,   10.9571943,   6.93874836
   6438,   6.86254835,   89.0312881
   6439,   38.9729881,   5.84487724
   6440,   22.8502998,   19.9409389
   6441,    22.843626,   69.9482117
   6442,   55.5632286,    83.131752
   6443,   55.3680649,   33.2933922
   6444,   55.5945435,   66.8625565
   6445,   55.5937843,    16.866333
   6446,   93.1695786,   30.1964855
   6447,   8.09188461,   4.02500725
   6448,   45.7949448,   39.8653755
   6449,   23.7059498,   96.2078629
   6450,   23.6883888,   3.85167074
   6451,   3.79232955,   23.7050209
   6452,   76.2948151,   3.79251647
   6453,    3.8106308,   76.3044891
   6454,     76.30439,   96.1810989
   6455,   96.1886063,   10.6402712
   6456,   45.5737953,   59.8733902
   6457,   45.4851265,   9.95140171
   6458,   92.9277649,   54.2568016
   6459,   91.7263412,   51.6287842
   6460,   3.79806685,   58.0706367
   6461,   3.81453896,   41.9385605
   6462,   58.0614243,   96.2072525
   6463,   58.0586662,    3.8208952
   6464,   41.9369812,   3.83507633
   6465,   41.8796082,    96.218071
   6466,   29.8555698,   8.55312252
   6467,   29.8854618,     58.59795
   6468,   28.7368069,   10.8565264
   6469,   28.7455502,   60.8393478
   6470,   92.5408478,   43.7904892
   6471,   22.1792297,   95.4699707
   6472,   4.53199911,   22.1757164
   6473,   22.1458282,   4.57245541
   6474,    77.823822,   4.53226423
   6475,   4.54135847,   77.8271942
   6476,   3.81317925,    6.8965292
   6477,   77.8286972,   95.4313583
   6478,   6.97411871,   95.9502563
   6479,   3.92303944,   92.5686951
   6480,   93.0367355,   3.96457458
   6481,   87.7790451,   95.3957062
   6482,   4.55556679,    56.550251
   6483,   4.56340122,   43.4531631
   6484,   95.3773422,   12.1744757
   6485,   56.5208588,   95.4727859
   6486,   56.5245934,   4.58886766
   6487,     43.43993,   4.67815018
   6488,   92.3667221,   96.1884232
   6489,   92.7214203,   26.0505447
   6490,   43.4430656,   95.3910446
   6491,   96.1293945,   7.59330559
   6492,   8.52893543,   13.9793386
   6493,   13.8616524,   8.46287441
   6494,   13.9896431,   91.4712906
   6495,   86.0303192,   8.52846527
   6496,   8.46020222,   86.1390533
   6497,    90.808609,    95.329361
   6498,   26.7576427,   4.18851662
   6499,   4.13206339,   73.2680817
   6500,   73.2559204,   4.09877205
   6501,   4.09885645,   26.7440014
   6502,    26.747858,   95.8982925
   6503,   73.2668839,   95.8652649
   6504,   26.7547455,   13.2925568
   6505,   26.7229443,   63.2934074
   6506,   92.6460495,   46.1146584
   6507,   91.6803513,   48.4852295
   6508,    91.648468,   35.9754639
   6509,    92.556572,   33.1969147
   6510,   91.5379562,    61.060009
   6511,   4.05019093,   61.0938835
   6512,   61.0948677,   4.07432175
   6513,   4.07085323,   38.9059105
   6514,   61.0943108,   95.9481201
   6515,   38.9196663,   3.91841769
   6516,    38.820919,   96.1522675
   6517,   91.6472015,   57.7827225
   6518,   92.3128738,   59.9443817
   6519,   56.7321587,    26.371376
   6520,   56.5787201,   76.3338089
   6521,   38.3166695,   7.55338669
   6522,   4.02822399,   3.87765312
   6523,   4.17339897,   95.8178864
   6524,   95.8505783,   4.24237442
   6525,   58.4966583,   70.5382156
   6526,   32.8168221,   91.4054184
   6527,   58.5020409,   20.5419006
   6528,   32.9046936,   8.36329269
   6529,   32.8084755,   41.3443489
   6530,   52.7377243,   38.9152107
   6531,   52.7648888,   61.0937767
   6532,   52.3330002,   89.0116043
   6533,   52.7719231,   11.0831823
   6534,   93.0666809,   67.1484451
   6535,   32.8671913,   58.3729057
   6536,   29.8470802,   4.16562128
   6537,   4.11026669,   70.1577835
   6538,   70.1319656,   4.08053303
   6539,   4.08071852,   29.8680382
   6540,    70.156723,   95.8883743
   6541,    29.882885,   95.9104004
   6542,   54.2046814,   36.6542091
   6543,   35.8624954,   7.07324553
   6544,   54.3897285,   86.8177109
   6545,   54.2545013,   13.3801327
   6546,   54.2483063,    63.378418
   6547,   35.8873978,   57.1377449
   6548,   91.5793991,   23.4961071
   6549,   92.5357437,   21.1159992
   6550,   50.9481201,   11.0589342
   6551,   50.8157654,   88.9796371
   6552,   29.1979408,   66.5418472
   6553,   29.1994438,   16.5420666
   6554,   50.9680824,   61.0646896
   6555,   50.9035683,   38.9378662
   6556,    93.083519,   92.0304947
   6557,   48.4241753,   90.4586258
   6558,     48.42939,   9.60082436
   6559,   93.8018265,   79.5963593
   6560,   48.4329491,   40.5444832
   6561,   3.28114533,   17.3969975
   6562,   17.3935013,   3.28280759
   6563,   17.3979778,   96.7186508
   6564,   3.28327107,   82.6059341
   6565,   82.6020508,   3.28175521
   6566,   48.5258446,   59.5968246
   6567,   29.8715172,   39.8378372
   6568,   58.5388145,   23.3513184
   6569,   58.4938202,    73.345871
   6570,   22.7863712,   29.0041351
   6571,   29.8332405,   89.8142014
   6572,   94.9899445,   78.7287064
   6573,   91.6023941,   91.9018631
   6574,   91.1032944,   83.0785446
   6575,    26.850193,   36.6734543
   6576,   7.91947031,   9.70875072
   6577,   9.73131561,   92.2642593
   6578,   90.2845917,   7.79760838
   6579,   26.8260975,   86.6198807
   6580,    55.355442,   29.7921982
   6581,   55.2846451,   79.5649109
   6582,   42.0014687,   6.88510036
   6583,   22.8695068,   79.0928116
   6584,   9.61827946,   7.90577126
   6585,   7.77330494,   90.4309311
   6586,   44.3272285,   42.1149216
   6587,   44.4073257,   91.9686203
   6588,   91.0590668,   79.8924408
   6589,   21.2633724,   23.3398476
   6590,   29.1937027,   33.4356232
   6591,   21.2246132,   73.3514328
   6592,   29.1964474,   83.4305496
   6593,   95.1064377,   96.2912369
   6594,    23.467165,   84.2881165
   6595,   23.5203571,   15.6826916
   6596,   23.4672127,   34.3284721
   6597,   96.7106781,   20.1998978
   6598,   23.4959717,   65.6863251
   6599,   45.5232697,   41.4657364
   6600,   94.0766525,   4.80042744
   6601,   5.86823463,   95.2025452
   6602,   4.49384117,   5.43188477
   6603,   23.1002026,    80.407814
   6604,   21.5080585,   79.7091446
   6605,   23.0725441,   30.4002914
   6606,   21.4340916,   29.6979771
   6607,   92.6696396,   5.14264297
   6608,   7.30077887,   94.5371857
   6609,   5.06312418,    7.0894413
   6610,   54.6742096,   88.3746567
   6611,   55.8230515,   85.7786331
   6612,   54.3126755,   38.1669884
   6613,   55.3607521,   35.7028542
   6614,   54.3536606,   11.8668985
   6615,   55.4767761,   14.3534241
   6616,   54.3263474,   61.8707733
   6617,   55.4723129,   64.3489075
   6618,   47.8779335,   41.9836922
   6619,   47.6612396,   91.8941345
   6620,   51.6353645,   90.0924454
   6621,   92.5004578,   31.6170044
   6622,   51.7144127,   40.0867462
   6623,   40.4887276,   4.71585512
   6624,   51.8056755,   59.9133453
   6625,   51.7837791,   9.89565182
   6626,   23.5222015,   18.5010357
   6627,   23.5138035,   68.5028076
   6628,   91.6509781,   42.4056549
   6629,   91.6141434,   46.1934433
   6630,   91.4586411,   33.5419655
   6631,   55.1827354,   15.6052389
   6632,   8.34210396,   5.21953392
   6633,   55.1821709,   65.6012268
   6634,   6.68835545,    3.8684082
   6635,   55.2217445,   84.4290466
   6636,   54.9853249,   34.4844017
   6637,   93.5739822,   26.5955772
   6638,   25.0901146,   95.3696747
   6639,   25.0851212,   4.78596544
   6640,   4.62824774,   25.0820122
   6641,    74.917717,   4.62812757
   6642,   4.65273476,   74.9235687
   6643,   74.9218979,   95.3414688
   6644,   95.3502655,   9.18638134
   6645,   4.61183453,   59.4503288
   6646,   4.63541412,   40.5559006
   6647,   59.4500389,   95.3831024
   6648,   59.4436989,   4.64962006
   6649,   47.7565918,   58.1993484
   6650,   4.77953053,   94.0152664
   6651,   20.6777248,   94.7066422
   6652,   5.29630804,   20.6717701
   6653,   20.6460857,   5.30712223
   6654,   79.3272018,   5.29682636
   6655,   5.29769993,   79.3240051
   6656,   5.34187984,   55.0678291
   6657,   5.34032631,   44.9345741
   6658,   31.2976112,   7.73527193
   6659,   54.9911766,   94.7375336
   6660,   28.4215775,   39.0431786
   6661,   79.3193054,   94.6316376
   6662,   94.5566025,   13.6606359
   6663,   40.3969421,   95.3461304
   6664,   28.3159637,   4.78606987
   6665,   28.3279762,   89.0062714
   6666,   71.7073059,   4.69705248
   6667,   4.69789553,   28.2923374
   6668,   4.72730589,   71.7236938
   6669,   28.3066769,   95.2963943
   6670,   54.9900284,   5.38989496
   6671,   71.7222137,   95.2702408
   6672,   7.73941565,   15.3435888
   6673,   15.2019415,   7.72350216
   6674,   95.1842194,   6.11401033
   6675,   15.3493671,   92.2572632
   6676,   44.8949814,   5.53321648
   6677,   84.6571655,    7.7407403
   6678,    7.7236433,   84.7977295
   6679,   31.2267933,   57.7469559
   6680,   4.59759569,   62.6470909
   6681,   4.61899948,   37.3065071
   6682,   62.6480026,   95.3998642
   6683,   62.6943398,   4.62605429
   6684,   37.3964157,   4.75442505
   6685,   86.2902603,    94.597023
   6686,   45.0100899,    94.582489
   6687,   47.5163765,   8.16988564
   6688,   29.9443703,   41.4175262
   6689,   37.2725487,   95.3475952
   6690,   89.9507065,   61.0190582
   6691,   29.8436203,   91.4685822
   6692,   93.9949188,   20.3740444
   6693,   31.4568062,   4.71585512
   6694,    4.6229682,   68.5809097
   6695,     68.51754,   4.60923386
   6696,   4.60943747,   31.4824772
   6697,    68.579422,   95.3753891
   6698,   31.5075741,   95.3837204
   6699,   89.2025223,   94.4934235
   6700,   57.7681465,   19.3643398
   6701,   57.7673149,    69.361145
   6702,   4.48164368,   18.1228371
   6703,    18.115221,   4.48533964
   6704,   18.1246872,   95.5179214
   6705,   4.48591805,   81.8817596
   6706,    81.875824,   4.48248863
   6707,   7.50936127,   8.56750584
   6708,   8.29786968,   93.1381302
   6709,   91.3886948,   7.33940697
   6710,   25.5816574,   64.1121445
   6711,   25.6219997,   14.1086111
   6712,   11.0728645,   8.59049988
   6713,   8.20435715,   7.53549433
   6714,   7.18661499,   91.9223557
   6715,   8.54800797,   88.9447327
   6716,   60.0378342,   70.4683685
   6717,   60.0414848,   20.4712696
   6718,   42.0063477,   5.49279737
   6719,   94.6398926,   67.0089798
   6720,   91.4707108,   67.1439896
   6721,   95.4696884,   19.5084915
   6722,   26.6033192,   61.9143562
   6723,   26.9482231,   38.3013306
   6724,   26.6509457,   11.9201574
   6725,   26.8408756,   88.1975784
   6726,   45.8510094,   58.2228661
   6727,   22.6210461,    82.930748
   6728,   24.2532997,   85.7298431
   6729,   45.6322327,    8.3660202
   6730,   24.2649841,   14.2092924
   6731,   22.7316666,   17.1162815
   6732,   22.6313705,   32.9720726
   6733,   24.2373581,   35.7826157
   6734,   24.2115383,   64.2278671
   6735,   22.7093391,   67.1198502
   6736,   90.0375671,   91.6984024
   6737,   94.6097031,   91.9742813
   6738,   89.5285797,   83.1301727
   6739,   93.8605804,    95.413559
   6740,   27.3779202,   60.7567101
   6741,   92.2546539,   78.9316864
   6742,    45.277874,   90.5408859
   6743,   38.5818329,   57.2690277
   6744,   27.3948345,   10.7916489
   6745,   89.6014938,    80.247612
   6746,   33.4343262,   57.0461731
   6747,   33.4909134,   7.00882912
   6748,    60.080307,   73.3536835
   6749,   60.1163177,   23.3548412
   6750,   5.29760504,   3.89340997
   6751,   42.8020973,   8.05190659
   6752,   34.2645645,   92.2061081
   6753,   34.2446861,   42.1290894
   6754,   88.9466858,    8.5666914
   6755,   11.1339121,   91.4290085
   6756,   8.62642384,   11.1083021
   6757,    20.330349,   74.7342224
   6758,     20.42519,   24.7546253
   6759,   45.1634178,   93.1774902
   6760,   91.5042877,   26.2327576
   6761,   45.4509315,   43.2320557
   6762,   20.3983307,   71.7933197
   6763,   91.9506073,   55.2207603
   6764,   93.1887436,    55.439106
   6765,   20.3918228,   21.7501659
   6766,   91.7224197,   54.0273705
   6767,   46.1017227,   89.1656494
   6768,   31.3778934,   92.2613831
   6769,   31.3826485,   42.1384697
   6770,   42.1077957,   43.4746895
   6771,   41.9480858,   93.1570663
   6772,   85.9770126,   10.1281958
   6773,   10.0518637,   86.0596466
   6774,   14.0478897,   89.8528824
   6775,    13.942605,   10.0498352
   6776,   10.1463223,    14.042429
   6777,   35.9311638,    55.541317
   6778,   89.9677124,   23.3874302
   6779,   55.2334137,    77.049408
   6780,   35.9285088,   5.54114723
   6781,   23.3200531,   81.7539062
   6782,   90.5948029,   54.6916046
   6783,    7.1481142,   5.05886793
   6784,   91.9319763,   45.0846481
   6785,   90.2408066,   32.8489037
   6786,   90.4041901,   45.4034462
   6787,   7.21246576,   16.7034702
   6788,   16.6233273,   7.29119682
   6789,   16.7075825,   92.7819443
   6790,   7.29148388,   83.3750076
   6791,   83.2948608,   7.21446228
   6792,   92.3215561,    94.507431
   6793,   32.4251213,   6.98217773
   6794,   92.5419312,    27.266077
   6795,   25.7847958,   60.7744865
   6796,   33.0420113,   5.52628994
   6797,   25.8906136,   10.8386927
   6798,   32.3232079,   56.9836121
   6799,   32.9453583,   55.6660614
   6800,   95.4547195,   93.1039047
   6801,   44.9304619,    6.9426012
   6802,   89.9733505,   26.2771454
   6803,   54.8416061,   7.02844524
   6804,   54.8502693,   93.1223526
   6805,   6.87307596,   45.0100822
   6806,   6.88440704,   55.0018272
   6807,   92.9676666,   13.7605724
   6808,   95.4819946,   68.0707092
   6809,   90.1006546,   42.3670197
   6810,   79.3928146,   93.0622787
   6811,   6.87950468,   79.4207306
   6812,   79.4607544,   6.90882206
   6813,   20.5192432,    6.8870101
   6814,   6.90887737,   20.5391064
   6815,   20.5684605,    93.092186
   6816,   86.1990356,   93.0275116
   6817,   41.9630585,   94.5643311
   6818,    41.478611,   44.9556274
   6819,   91.6750107,   29.9673977
   6820,   92.3113098,    41.226017
   6821,   20.5236568,   78.3533707
   6822,   20.3622475,   28.5761566
   6823,   56.7820587,   64.0426178
   6824,    56.790287,   14.0514889
   6825,   23.6088238,   94.6302338
   6826,   23.5369415,   5.51235342
   6827,   5.36953688,   23.5945759
   6828,   76.4050598,   5.36952639
   6829,   5.37979364,    76.399437
   6830,   5.36483431,   57.9770966
   6831,   5.64182997,   92.5129471
   6832,   5.38342857,   42.0224762
   6833,    57.968277,   94.6317291
   6834,   19.5208969,   95.5395279
   6835,   76.3964386,   94.6053238
   6836,   4.46089125,   19.5181026
   6837,   19.5073948,   4.46742725
   6838,   57.9644279,   5.42480803
   6839,   80.4807892,   4.46145964
   6840,   4.46511126,   80.4825668
   6841,   4.53668213,   53.8905449
   6842,   27.3081303,   5.54445744
   6843,    4.5306325,   46.1182976
   6844,    5.4274168,   27.2181549
   6845,    72.781189,   5.42600584
   6846,   5.45055914,   72.7877502
   6847,   27.2399731,   94.5700836
   6848,   94.5173111,   10.7484198
   6849,   92.4865417,   19.6453152
   6850,     5.375453,   61.5790558
   6851,   3.82009792,   64.0031662
   6852,   72.7856903,   94.5456924
   6853,   5.40528345,   38.4089928
   6854,    3.7801578,   35.8709526
   6855,   64.0029526,   96.1786041
   6856,   61.5824928,    94.616272
   6857,   61.5931549,   5.42358875
   6858,   64.1293106,   3.78234267
   6859,   53.8082123,   95.5873413
   6860,   35.8960762,   3.93149114
   6861,   29.8564053,   6.79884434
   6862,   95.3534851,   14.7651262
   6863,   94.4159622,   7.73881388
   6864,   30.3778572,   5.49443865
   6865,   32.7628593,   3.85002804
   6866,   5.41170883,   69.6483917
   6867,   3.82837343,   67.2250061
   6868,   67.0937576,   3.77573609
   6869,    69.612381,   5.39820099
   6870,   3.77553082,   32.9063034
   6871,   5.39905405,   30.3874359
   6872,   80.5092087,   95.4354172
   6873,   67.2238541,   96.1704712
   6874,   69.6465225,   94.5857468
   6875,   53.8115234,   4.55446577
   6876,    30.422884,   94.5840988
   6877,   32.9049492,   96.2343292
   6878,   5.84785223,    17.297184
   6879,   17.2669315,   5.87158203
   6880,   17.3001785,   94.1501617
   6881,   5.87262487,   82.7298813
   6882,   82.7012024,   5.84937811
   6883,   8.57052994,   8.66410732
   6884,   46.1003151,   4.72618484
   6885,   29.7653027,   57.0363007
   6886,   8.51397705,   91.6424332
   6887,   38.8395958,   94.2130737
   6888,   35.8178406,   96.2353287
   6889,   85.1271591,   95.4214096
   6890,   21.2241325,   70.1624908
   6891,   21.2392941,   20.1246815
   6892,   60.8867683,   21.9034615
   6893,   22.6839828,   85.7015457
   6894,    25.640501,   85.8218155
   6895,   60.8748245,   71.9012146
   6896,   22.7077503,   14.2688866
   6897,   49.0565605,   91.6305008
   6898,   46.0324478,   91.9776382
   6899,   23.3148479,   31.7769108
   6900,   25.6391373,   35.8787613
   6901,   22.6651707,   35.7212334
   6902,   22.6512909,   64.3097763
   6903,   49.1405869,   41.6670074
   6904,    26.623682,   9.51456547
   6905,   56.9104195,   67.0971985
   6906,   26.5909367,   59.3750839
   6907,   35.6830177,   91.4197083
   6908,   56.9087105,   17.1010017
   6909,   38.3558846,   58.5952148
   6910,   38.7163239,   55.7004013
   6911,   20.8845634,   76.0474319
   6912,   21.1036263,   26.1547527
   6913,   35.6798782,   41.3783836
   6914,   92.2969742,   68.6081085
   6915,   19.5500183,   73.3560944
   6916,   19.5597553,   23.3379841
   6917,   89.2683411,   90.2414169
   6918,   32.8650818,   93.0262756
   6919,   32.8227844,   42.9007225
   6920,   87.3535538,   10.9180927
   6921,   12.6677542,   10.8749065
   6922,   10.9312754,   12.6846933
   6923,   10.8777142,   87.3372498
   6924,   12.6910048,   89.0737076
   6925,   89.2047729,    84.649498
   6926,   89.1861038,   81.6763687
   6927,   21.1290817,   33.0192299
   6928,    21.100111,   82.9779434
   6929,   44.5422363,   44.7854156
   6930,   92.2048492,   77.3133926
   6931,   89.1336746,   24.8336887
   6932,   51.8615685,   58.5661926
   6933,   51.6841049,   41.4380684
   6934,   51.8387642,   8.52693081
   6935,     51.69981,   91.4589157
   6936,   39.5553246,   42.7379112
   6937,   39.5588531,   92.7508392
   6938,   91.4416962,   64.6465836
   6939,   92.3221664,   93.0876083
   6940,   89.1405792,   22.0833416
   6941,   57.9725876,   68.0105438
   6942,   89.1650848,   62.4755363
   6943,   57.9710464,   18.0138264
   6944,   34.5625877,   4.78368521
   6945,   91.3498383,   8.34886169
   6946,   34.4779892,   54.6797333
   6947,   37.3872681,   54.8094254
   6948,   49.0694313,   8.23665428
   6949,   49.2159615,   58.3358688
   6950,   10.1750393,    88.745697
   6951,   11.2709475,   10.1846066
   6952,   57.5714607,   77.5485764
   6953,   10.9659262,   15.3498154
   6954,   15.3006067,    10.801321
   6955,   15.3471928,    89.020134
   6956,   10.8002157,   84.7003326
   6957,   84.6747208,   10.9446392
   6958,   60.9211731,   24.7940063
   6959,    60.862278,   74.8097687
   6960,   29.8683796,   93.2661133
   6961,   70.2187958,   93.2952347
   6962,   6.72787952,   29.8091831
   6963,   70.1876602,   6.72141695
   6964,   6.70057011,   70.2207184
   6965,   61.0068665,   6.78792858
   6966,   61.0192184,   93.2717514
   6967,    6.7132206,   39.0016365
   6968,   6.68478107,   60.9926453
   6969,   73.3573914,   93.2718506
   6970,   26.6916103,   93.2553406
   6971,   6.72186089,    73.361618
   6972,   73.3737259,   6.73879862
   6973,   6.74772215,   26.6212616
   6974,   26.9093018,   6.89030075
   6975,   92.6259155,   7.84750366
   6976,   91.9620056,   9.43801117
   6977,   90.0615997,   29.8358097
   6978,   48.6539116,    6.5325408
   6979,   57.9090881,   7.05406284
   6980,   6.93391609,   42.0745888
   6981,   48.8973846,   57.0037003
   6982,    90.121048,   64.0531311
   6983,   93.0706177,   70.1048431
   6984,   76.4480743,   93.0498199
   6985,   38.1664696,   42.4368553
   6986,    6.9343257,   76.4580002
   6987,   23.2632713,   7.10099554
   6988,   38.7770271,   44.0769882
   6989,   48.7651138,   92.9944839
   6990,    48.937439,   42.9780197
   6991,   91.3876877,   20.4053936
   6992,   50.2562561,   92.2628632
   6993,   58.1182442,   66.3983841
   6994,    58.116806,   16.4035225
   6995,   50.3141518,   42.2483521
   6996,   92.3289032,   18.0692921
   6997,   21.1056881,   85.7489548
   6998,   21.1692905,   14.2962332
   6999,     4.604496,   91.3642502
   7000,   21.1411247,   35.7043457
   7001,   21.1212692,   64.3262024
   7002,   89.3900757,   46.5099716
   7003,   91.5252991,   32.5085106
   7004,    89.287056,   33.9679031
   7005,   7.62609005,   6.28666019
   7006,   89.1388168,    55.631279
   7007,   89.3945312,   43.8284988
   7008,   92.6750946,   28.7675953
   7009,   8.42628479,   16.4879074
   7010,   16.4936523,   91.5573044
   7011,    83.511055,   8.42762089
   7012,   7.68732738,   56.4016304
   7013,   7.68100834,    43.600338
   7014,   92.0559616,   12.4097185
   7015,   56.3509712,   92.2481613
   7016,   56.3406029,   7.91453695
   7017,   22.0433121,   92.2353134
   7018,   7.79054499,   21.9756775
   7019,   21.8450546,   7.70333958
   7020,   78.0302429,   7.78907347
   7021,   7.68887663,    77.974762
   7022,   77.9655304,   92.2706528
   7023,   19.7852325,   79.7012558
   7024,    67.158783,   97.4964905
   7025,   2.50299144,   67.1593246
   7026,   64.1097488,   97.5029221
   7027,   2.49659514,   64.1099014
   7028,   32.8759003,   97.5903854
   7029,   35.8319092,   97.6054077
   7030,   2.41524601,   35.8588753
   7031,   2.41373372,   32.8794022
   7032,   35.8383751,   2.53354478
   7033,   32.8047066,   2.52740765
   7034,   64.1412582,   2.41587424
   7035,    67.120636,   2.41380167
   7036,   19.7662258,   29.7678776
   7037,   44.1675568,   7.85737991
   7038,   5.34103346,   63.9707832
   7039,   5.40944433,    35.893158
   7040,    64.108696,   5.42282057
   7041,   63.9699249,    94.650032
   7042,   5.35100269,   67.2328033
   7043,   67.1075897,    5.4035511
   7044,   5.40249109,     32.89328
   7045,   67.2294159,   94.6420441
   7046,   87.5012283,   92.1812134
   7047,   32.9070206,   94.6269836
   7048,    28.414484,   7.70652437
   7049,   23.4718399,   86.8751221
   7050,   20.3650036,   18.6174183
   7051,   23.4641018,   13.0469542
   7052,   20.2961941,   68.6587143
   7053,   35.7476845,   94.5864105
   7054,   23.4196663,   36.9199562
   7055,   61.6911583,   20.3802414
   7056,   28.6661854,   57.8351097
   7057,   23.3588848,   63.1284637
   7058,   61.6892357,   70.3779526
   7059,   10.2170839,   11.2796507
   7060,    14.050662,   11.6527767
   7061,   11.2820024,   89.8073654
   7062,   89.0065613,   10.3507462
   7063,   11.6568184,   85.9503479
   7064,   40.0555992,    45.039402
   7065,   43.0203896,   44.7719841
   7066,   20.3894062,   34.3570862
   7067,    88.343689,    23.394907
   7068,    89.550972,   21.0171108
   7069,   88.3991928,   61.0233803
   7070,   59.6578712,   17.4322987
   7071,   59.6598816,   67.4283142
   7072,   53.2409668,   92.2907944
   7073,   53.1249619,   42.1661263
   7074,   53.3118134,    7.8247509
   7075,   90.0074081,    88.685379
   7076,   11.7233648,   14.0819235
   7077,   10.5164757,   16.4476929
   7078,   16.6764507,   10.0030785
   7079,   53.2331123,   57.9080009
   7080,   14.0817604,   88.2746887
   7081,   16.4439774,   89.4377136
   7082,   83.5594254,   10.5113878
   7083,   85.9685593,   11.6547661
   7084,   9.99622059,    83.313858
   7085,   36.0088959,   53.8817711
   7086,   58.3761711,   76.3254166
   7087,   57.5324974,   78.7209473
   7088,   61.6883125,   23.3569584
   7089,   60.1710548,   26.2232018
   7090,   89.8614807,   85.8382187
   7091,    61.665535,   73.3597183
   7092,   60.0259018,   76.3072586
   7093,    52.395031,   4.58239937
   7094,   93.6642685,   76.4940109
   7095,   4.57678032,   47.5399361
   7096,   35.6319351,   42.8932343
   7097,   6.99478865,   17.9595985
   7098,   17.9669991,   92.9964447
   7099,    82.038414,   6.99636698
   7100,   29.9668274,   42.9456787
   7101,   35.6486664,   92.9915848
   7102,   91.4585266,    63.561657
   7103,   81.9689407,   95.3760376
   7104,   7.08198738,   82.0524292
   7105,   17.9394608,   7.08177805
   7106,   25.7405643,   58.0203819
   7107,   19.7734413,   25.9072094
   7108,   25.8519955,   8.18802643
   7109,   83.6812439,   95.3760223
   7110,   19.6583405,   75.8372574
   7111,   88.2392502,   82.4861832
   7112,   88.3010025,   85.7897034
   7113,   73.8619308,   94.5697403
   7114,   5.42502499,    73.864502
   7115,   26.2167187,   5.60387945
   7116,   60.5061646,   5.42838573
   7117,   5.39689827,    39.496273
   7118,    70.699585,   94.5766296
   7119,   5.42051649,   70.7013321
   7120,   29.3485851,   5.49653149
   7121,    20.338253,   84.3404846
   7122,    57.886322,   12.9200106
   7123,   57.8430405,   62.8778725
   7124,   89.8838501,   67.0929871
   7125,   39.9409447,   55.0080719
   7126,   89.2059097,   53.8735695
   7127,   89.1792984,   59.8406868
   7128,   38.8472252,   45.8687248
   7129,   42.4879684,     46.15728
   7130,   57.9143562,   93.0298157
   7131,   6.91819096,   57.9170189
   7132,   17.7193832,   91.7468567
   7133,   8.55219841,    82.276535
   7134,   8.21854973,   17.7034607
   7135,   17.6992168,   8.55926418
   7136,   82.2956696,   8.21946907
   7137,   19.1156387,   92.2855606
   7138,   7.69231653,   80.8231506
   7139,    80.918396,    7.6829915
   7140,   19.1408081,   7.70734978
   7141,   7.68330574,   19.0819111
   7142,   76.4864502,   6.96189976
   7143,   6.96369982,    23.513773
   7144,   23.5642414,    93.032547
   7145,   18.3487263,   76.4716568
   7146,   18.3971767,   26.5211964
   7147,   36.8097267,   92.2479401
   7148,   58.0399399,   64.7240829
   7149,   58.0487785,   14.7388659
   7150,   36.8046227,   42.1814194
   7151,   35.7155647,   44.4205055
   7152,   89.2693634,    31.286087
   7153,   7.63738775,   68.7468338
   7154,    68.705658,   7.67051077
   7155,   7.67947292,   31.2954655
   7156,   68.7458038,   92.3499832
   7157,   7.62462568,   62.4720039
   7158,    62.521225,   7.79567289
   7159,   7.66575146,   37.5072517
   7160,   62.5116501,   92.3320541
   7161,   27.2208748,    8.3441143
   7162,   28.2904186,   92.3162689
   7163,   71.8025055,   7.71275187
   7164,   7.62250614,   71.8210526
   7165,    7.7411828,   28.1794968
   7166,   71.8161926,   92.3713531
   7167,   92.0424042,   6.36405754
   7168,   93.6122971,    32.677063
   7169,   90.8993454,   10.9613047
   7170,   89.3262634,   47.8162079
   7171,   88.6424408,   45.2858925
   7172,   89.2797699,   35.2762642
   7173,   88.5049591,   32.7363892
   7174,   27.3033447,   57.9432068
   7175,   88.5099487,   42.3568382
   7176,   89.5472946,   57.0062981
   7177,   93.8595352,   17.1233253
   7178,   89.0834808,    65.578331
   7179,   20.3800354,   15.7156105
   7180,    29.962204,   44.4807701
   7181,   20.3340492,   65.6948624
   7182,   50.5064964,   7.39640665
   7183,     8.423316,   54.9214745
   7184,   8.37804508,   45.1371956
   7185,   20.5451965,   91.4011078
   7186,   8.55990505,   20.4404335
   7187,   91.4150696,   13.8562632
   7188,   92.7997894,     10.86127
   7189,   20.5097713,    8.4677515
   7190,   48.7963715,   44.5032463
   7191,   79.5703049,   8.55659008
   7192,   8.41280651,   79.4213867
   7193,   19.6464577,   35.7025681
   7194,   4.57814217,   66.1450119
   7195,   65.6123505,   4.59394646
   7196,   4.58986664,   34.3891029
   7197,   54.7673531,   91.4397888
   7198,   66.1422195,   95.4157181
   7199,    48.604496,   94.5888824
   7200,   79.4922562,   91.4969101
   7201,   20.4768982,   80.8122406
   7202,   20.4770908,   30.8456516
   7203,   94.4645004,   70.2344131
   7204,   19.5005207,   20.1362953
   7205,   88.5036392,   21.0645294
   7206,   19.5040665,   70.2436829
   7207,   34.3411484,   95.4527588
   7208,   60.7360077,   18.9383049
   7209,   60.7367668,   68.9352951
   7210,   19.6542454,    32.991909
   7211,    28.789217,   42.2400246
   7212,   11.5611343,   16.4267044
   7213,   16.3998394,   88.3734131
   7214,   83.5926361,   11.5572348
   7215,   88.9561157,   92.8448181
   7216,   86.0916061,   91.4702225
   7217,   61.6926956,   26.2106876
   7218,   58.5602646,    26.271719
   7219,   61.6260834,   76.2544174
   7220,   24.2604752,   8.26740837
   7221,   23.1553364,   61.7993698
   7222,    54.544735,   41.3257713
   7223,   23.2885723,   38.3036003
   7224,   24.2076092,   58.0437088
   7225,    23.388155,   11.6064262
   7226,   54.7252693,   8.70481586
   7227,   52.0881844,   7.16966629
   7228,   89.2169113,     52.28162
   7229,   82.8421402,   93.8718033
   7230,   54.5574722,   58.7363472
   7231,   88.3372421,   88.8381271
   7232,   19.6052685,    82.960701
   7233,   91.4047089,   85.7067337
   7234,   57.0232925,   11.3278484
   7235,   11.5298262,   88.4657593
   7236,   56.9039917,   61.2776375
   7237,    86.692131,   85.5461044
   7238,   38.8533745,   54.1162415
   7239,   41.3391953,   55.1305771
   7240,   11.5455236,   11.5280342
   7241,   21.1128826,   67.1453781
   7242,   51.6996384,   43.0356216
   7243,   51.6914444,   93.1147385
   7244,   89.1341934,    68.477829
   7245,   21.1582699,   17.1442986
   7246,   95.0849838,    75.614418
   7247,   88.3024521,   63.9837532
   7248,   86.8423233,    82.573204
   7249,   89.0282135,   58.3093376
   7250,   60.9502525,   66.3291397
   7251,   7.67198801,   40.5839424
   7252,   60.9477348,   16.3357735
   7253,   7.67601538,   74.9567795
   7254,   59.4251785,   7.85288286
   7255,    74.942955,   92.3112183
   7256,   88.4182129,   11.6793642
   7257,   11.4679327,   83.5448608
   7258,   19.5331898,   85.7375488
   7259,   16.4410801,   11.4876728
   7260,   63.2716026,   23.3644218
   7261,   63.2628365,   73.3659592
   7262,   6.03719854,   48.3607712
   7263,   51.5351372,   5.95603514
   7264,   88.9874954,   19.8428802
   7265,    11.072176,   17.7414131
   7266,   17.7213993,   11.3235426
   7267,   17.7221413,   88.7835312
   7268,   82.2608871,   11.0703306
   7269,    11.303298,   82.2365265
   7270,   87.1989746,   20.4657917
   7271,   12.8421955,   17.0579357
   7272,   16.9982643,   12.9324036
   7273,    16.953455,   87.0382156
   7274,   82.9259262,   12.8664045
   7275,   12.8978977,   82.9405212
   7276,   38.1699333,   92.4846649
   7277,   89.5365295,   11.7331839
   7278,   20.4056454,   31.9379921
   7279,   60.9482307,   27.3760681
   7280,   60.8248787,   77.5020828
   7281,   88.8845596,   13.0130539
   7282,   92.0171738,   86.9290848
   7283,   63.2104378,   26.2521191
   7284,   63.1877861,   76.2701645
   7285,    65.063942,   95.4150238
   7286,   4.57771587,   65.0663376
   7287,   70.6767349,    5.4079566
   7288,    5.4103837,   29.3221703
   7289,   29.3543911,   94.5822296
   7290,   7.65324879,   59.4031258
   7291,   59.4503136,   92.2129822
   7292,   25.1065369,   92.2191238
   7293,   7.73432732,   24.9996719
   7294,   74.9898224,   7.72569227
   7295,   88.4576263,   29.7625237
   7296,   90.4230042,   48.5537682
   7297,   17.3091965,   75.0202866
   7298,    89.144577,   40.9981537
   7299,   17.3007698,   25.0255394
   7300,    90.375206,   35.9951782
   7301,   90.3620529,   57.7620811
   7302,   59.4281807,   13.8974638
   7303,   17.9994965,   85.6879349
   7304,   59.4102249,   63.8539352
   7305,   8.42604828,   70.3011551
   7306,   6.87085772,   67.2719574
   7307,   70.2257614,   8.52324772
   7308,    67.248764,   6.94890404
   7309,   6.95105839,   32.7564278
   7310,   8.55491734,   29.7614136
   7311,   43.7782516,   45.8472443
   7312,   67.2658615,   93.1058807
   7313,    70.297493,   91.5666656
   7314,   6.85974789,   63.9353485
   7315,   8.41920662,   60.9258575
   7316,   26.7256432,   91.4245834
   7317,   8.44687462,   39.0595398
   7318,   6.95488548,   36.0194092
   7319,   63.9993668,      7.00105
   7320,   60.9698792,   8.65400696
   7321,   73.4413147,   8.55297852
   7322,   8.43875885,   73.4138031
   7323,   8.58802414,   26.5111618
   7324,   63.9329071,   93.1106491
   7325,   61.0434456,   91.4434814
   7326,   19.4797382,   67.1404572
   7327,    73.399704,   91.5491638
   7328,   34.2971878,   45.2437096
   7329,   92.2634659,   16.3528843
   7330,   19.6333694,   14.3080769
   7331,   7.61168766,   53.8045158
   7332,   19.5698338,   17.1563683
   7333,    92.222908,   14.9297113
   7334,    19.604969,   64.2872314
   7335,   31.3979321,   45.2531242
   7336,   20.4024601,   36.8111534
   7337,    23.426899,   9.80769157
   7338,   21.8126545,   38.9994659
   7339,   21.7342281,    61.146183
   7340,   23.4556942,     59.36026
   7341,   83.6603851,   92.4353714
   7342,   87.1491623,   57.7905006
   7343,   58.6149025,     11.31001
   7344,   55.6047821,   11.1923552
   7345,    54.475563,   10.3316565
   7346,   54.5459251,   42.9504852
   7347,   54.3816528,   39.7173882
   7348,   55.5162201,   61.1815605
   7349,   58.4554787,   61.1650276
   7350,   8.48222542,   76.5173492
   7351,   8.47295666,   42.1297073
   7352,   18.1422234,   32.9679527
   7353,   57.8645973,   8.73807716
   7354,   42.0035553,   56.5970688
   7355,   76.4850082,   91.4883652
   7356,   54.3882637,   60.3398895
   7357,   54.5816536,   57.0948105
   7358,   60.8875427,   14.7403259
   7359,   20.2693138,   87.1567841
   7360,   60.8852577,   64.7090988
   7361,   50.8254967,   4.57638693
   7362,   89.9072571,    69.872551
   7363,   88.6562576,    91.484848
   7364,   86.0413589,    84.074379
   7365,   4.58869648,   49.1777916
   7366,   7.43945932,   47.6231575
   7367,   86.0167236,   81.1080399
   7368,   95.6974258,   71.0224609
   7369,    24.200304,    60.718708
   7370,   9.99206448,    81.821312
   7371,   51.6824989,    44.773304
   7372,   18.0871048,   9.99748993
   7373,   24.5696869,   10.8541117
   7374,   18.1446762,   35.7240753
   7375,   95.3983841,   16.1766014
   7376,    51.529007,   94.7092819
   7377,   82.0610962,   92.4060669
   7378,   27.3744183,    42.297287
   7379,   94.6770096,   73.8618927
   7380,   88.2722855,   67.0935593
   7381,   57.8524933,   91.3730011
   7382,   38.9947853,    52.504673
   7383,   26.4446659,   56.8363914
   7384,   8.46828938,   57.8569679
   7385,     76.55159,   8.60662651
   7386,   8.60333157,   23.4504986
   7387,   23.5421906,   91.3715515
   7388,   20.0298634,   27.2270775
   7389,   54.7666283,   89.8546906
   7390,   89.0646362,   87.2750854
   7391,   95.4770889,   17.8712101
   7392,   18.0617828,   82.9378052
   7393,    64.068367,   21.9213791
   7394,   64.0686951,   71.9202042
   7395,   85.8577347,   89.8880615
   7396,   90.0793304,   13.9259243
   7397,   64.0663376,   24.8313961
   7398,   64.0566406,   74.8361053
   7399,   50.0203323,   95.4058304
   7400,   9.96672726,   45.3069305
   7401,   79.5578156,    89.925972
   7402,   10.0304079,   54.8346329
   7403,   50.0925865,   45.3391571
   7404,   9.74364662,    79.442337
   7405,    20.519043,   10.0487413
   7406,   61.2407341,   67.6500702
   7407,   61.2382126,   17.6542358
   7408,    57.880806,   27.5599136
   7409,    21.933733,    10.841774
   7410,   32.8387108,   44.4625282
   7411,   86.8208008,   60.9260712
   7412,   28.7432251,   45.2627678
   7413,   33.6597977,   4.31150675
   7414,   3.31694722,   48.3493881
   7415,   45.1376953,   46.3951645
   7416,   89.5237427,   39.6436768
   7417,   60.9019585,   62.7985535
   7418,   60.9238815,   12.9088564
   7419,    60.161953,   11.3001652
   7420,   60.0418739,   61.0438766
   7421,   5.37093258,   60.5021133
   7422,   60.5097694,   94.6120911
   7423,   26.1611366,   94.5864334
   7424,    73.864212,   5.40902758
   7425,   5.41131306,   26.1344318
   7426,   86.1409531,   21.8580971
   7427,   13.8714504,   15.6609383
   7428,    15.595458,   13.8420353
   7429,   84.4018936,   13.9844046
   7430,   15.6071444,   86.1532822
   7431,   13.9016333,   84.3563538
   7432,   55.5266762,   38.9166031
   7433,   87.4146652,   13.9564161
   7434,   89.2442627,   28.6207161
   7435,   88.9378738,   14.7077274
   7436,      42.2458,    47.728199
   7437,   8.40214729,   67.3022003
   7438,   67.2978821,   8.42869663
   7439,    8.4425869,   32.7317581
   7440,    17.964035,    73.533577
   7441,   16.5498657,    76.495079
   7442,   8.39571953,   63.9240532
   7443,   17.9269943,   23.5161228
   7444,   16.5320148,    26.505806
   7445,   64.0291977,   8.54087257
   7446,   8.44407082,   36.0575905
   7447,   90.6992111,   17.2287483
   7448,   63.9243507,   91.5665741
   7449,   67.2930832,   91.5450516
   7450,   86.0805664,   59.3948212
   7451,   7.55851746,    52.409111
   7452,   17.2783661,   84.3280029
   7453,   80.6456909,   92.3054047
   7454,   23.1690369,   39.8984222
   7455,   20.4236641,   61.9041862
   7456,   10.8955183,   80.5012436
   7457,    80.512001,   11.0631561
   7458,   19.5064411,   88.6121292
   7459,   22.6746349,   58.0206718
   7460,   17.3607368,   34.3608475
   7461,   7.54446077,   46.2466164
   7462,   7.43927145,   49.1762848
   7463,   19.1546974,   10.8317156
   7464,   57.8344841,   10.1683044
   7465,   11.0835752,   19.5113468
   7466,   35.7925148,   46.0343666
   7467,   57.5587578,   60.0384865
   7468,   89.1016464,   18.0940094
   7469,   55.9734077,    42.230648
   7470,   60.9250908,   78.9300995
   7471,    60.969635,   28.7701664
   7472,   23.4349594,   89.7551727
   7473,   10.1913042,   23.4845791
   7474,   76.5436401,   10.2593775
   7475,   10.0454502,   57.8169403
   7476,   26.5808315,   43.7530098
   7477,   97.0148163,   16.8611889
   7478,   57.6710701,   89.7630157
   7479,   62.1748772,   16.9861374
   7480,   62.1784592,   66.9799042
   7481,   53.2463074,   45.2854652
   7482,   91.5008926,   69.9698944
   7483,   52.0767403,   57.2305832
   7484,   56.1437225,   89.0687256
   7485,    86.852684,    79.549469
   7486,   63.3221397,   20.4500904
   7487,    63.323864,   70.4475479
   7488,   10.8328552,   43.7769623
   7489,   10.8461542,   56.3239555
   7490,   91.6583939,   88.3464355
   7491,     49.26754,   4.69922686
   7492,   64.8801804,   23.3497047
   7493,   51.6314583,   3.33013964
   7494,   64.8789291,    73.349968
   7495,   18.0138378,   64.2073593
   7496,   78.0827408,   89.0768204
   7497,   48.5033569,   96.1626587
   7498,    20.483757,   11.6995678
   7499,   18.0575256,   14.3084469
   7500,   20.4076939,   38.1620941
   7501,   26.8320084,   89.7607346
   7502,   29.9291477,   46.0616074
   7503,   27.3444462,   45.1806259
   7504,    48.689167,   46.0062447
   7505,   70.3311615,   89.9076233
   7506,   10.0890541,   70.3490524
   7507,   37.6361504,   51.6625824
   7508,   58.1551476,   28.9637794
   7509,   92.9671021,   73.4523697
   7510,   4.59744406,   50.8164711
   7511,   60.9551125,   10.1259031
   7512,   22.9300671,   8.41538048
   7513,   10.0880775,   39.1009674
   7514,   26.2431145,   55.4793587
   7515,   73.4331589,   89.8883438
   7516,   42.9099617,   57.9525299
   7517,   10.0852413,   73.4647141
   7518,   89.3784256,   36.7263756
   7519,   89.3511276,    49.273468
   7520,   88.5383606,   69.6539383
   7521,   10.9866848,   78.3962021
   7522,   20.8775425,   88.3659286
   7523,   10.0570364,   42.1881371
   7524,   76.5270844,    89.879158
   7525,    10.097024,   76.6083832
   7526,   85.9571991,    62.395092
   7527,   40.4054184,   51.6941605
   7528,   85.1760788,   82.6941223
   7529,   55.3555336,   27.1184845
   7530,   86.9328842,   88.9662933
   7531,   55.9658546,   57.9225998
   7532,   25.7605247,   45.1544151
   7533,   63.7359734,   66.7152863
   7534,   63.7278786,   16.7301559
   7535,   88.9076614,   71.0522156
   7536,   87.1711121,   70.2619629
   7537,   50.5531654,    57.495079
   7538,   51.5064163,   55.8197556
   7539,   57.3667679,   58.6381073
   7540,    57.224369,   41.6292267
   7541,   20.3756752,   39.7455063
   7542,   88.2393875,    35.984478
   7543,   23.0500584,   41.4553719
   7544,   88.2284164,   48.5049934
   7545,   7.51629066,    50.770153
   7546,   20.6469059,    89.738121
   7547,   85.7061768,   88.2807083
   7548,   89.5099792,   38.2020264
   7549,   89.3159714,   50.7640839
   7550,   21.0990334,   57.8985329
   7551,   90.7882614,   39.0682526
   7552,   88.3729553,   39.9018402
   7553,   62.3090897,   14.0552902
   7554,   62.3091621,   64.0068817
   7555,   44.8064499,   47.7434044
   7556,   61.7494011,   11.3057299
   7557,   85.4163361,    20.461338
   7558,    86.794838,   23.2641964
   7559,   14.6297045,   17.0400219
   7560,   13.2409096,   14.2717228
   7561,   16.6931152,   14.4640055
   7562,   14.2548285,   13.2098503
   7563,   85.9326477,   13.1980028
   7564,   82.7800064,   14.7412825
   7565,   14.2665129,   86.7642746
   7566,    13.224246,   85.7406464
   7567,    14.736762,   82.9588776
   7568,   85.3217621,   57.9017639
   7569,   7.59249878,    66.164856
   7570,    65.109314,   7.72537279
   7571,   6.07193565,   51.6486092
   7572,   7.69751167,     34.93433
   7573,    66.139946,   92.3394699
   7574,   20.4301472,   13.1304159
   7575,   17.3482475,   77.7007675
   7576,   16.4303703,   73.6524734
   7577,   16.3469219,   23.6372166
   7578,   8.56101227,   48.3993149
   7579,   17.3583202,   27.7402153
   7580,   12.4827232,   20.3582802
   7581,   20.3907719,   63.2075348
   7582,   79.7131729,   12.3952971
   7583,   12.5177259,   79.5654526
   7584,   24.4000645,   39.1979218
   7585,   87.5672989,     17.22085
   7586,   16.6092815,   32.9529114
   7587,   20.3542747,   60.3934479
   7588,   23.4628105,   56.9166298
   7589,   25.7100391,   42.3499222
   7590,   11.6840496,    54.863163
   7591,   11.6384268,   45.3453636
   7592,     17.16255,     65.61483
   7593,   37.2574997,   45.1269608
   7594,   47.3518066,   95.3701935
   7595,   79.6094894,   88.3581009
   7596,   52.1978912,   46.0483971
   7597,   54.5141678,   44.4776649
   7598,   42.7383156,   55.3400841
   7599,   59.6023293,   29.5694561
   7600,   23.4144688,   88.2194519
   7601,   36.2229881,   52.2769051
   7602,   24.8408012,   54.8352165
   7603,   22.0587006,   88.9958496
   7604,   47.5960693,   45.1447754
   7605,    85.169754,    79.639122
   7606,   85.3371887,    85.296402
   7607,   85.1796722,   60.9265862
   7608,   86.6709366,   63.8687248
   7609,   92.1340485,   74.4411469
   7610,   10.0667229,   64.0128937
   7611,   48.6001396,   47.5456009
   7612,   10.0559025,   35.9872971
   7613,   56.9511681,    38.897995
   7614,   64.3358688,   10.0951567
   7615,   63.9888687,   90.0827484
   7616,    41.839447,   52.2244835
   7617,   39.0115242,   50.9062996
   7618,   47.5840416,   4.79857731
   7619,   64.7507324,   76.3630753
   7620,   64.8690491,   70.5271225
   7621,   4.58334541,   52.4724274
   7622,   64.7579498,   26.3570404
   7623,   64.8571701,   20.5357456
   7624,   10.0373621,   67.2329483
   7625,   67.2297974,   9.99094105
   7626,   10.0304594,   32.8436127
   7627,   83.5741119,   82.9218826
   7628,   67.2613068,   89.9263611
   7629,   32.8546753,     46.04879
   7630,   57.5037842,   88.2217484
   7631,   48.4704361,    97.719101
   7632,   16.4325981,   82.9572067
   7633,   10.9361305,   68.8014603
   7634,   85.9320297,   14.8544369
   7635,   68.7995148,   89.0929642
   7636,   10.9633379,   37.5738411
   7637,   10.9431705,   71.9205322
   7638,   11.0019188,   22.3993244
   7639,   77.7261353,   11.0343294
   7640,    71.885788,   89.0368881
   7641,   16.6922989,   85.5470963
   7642,   10.9040966,   75.0405197
   7643,    10.885107,    40.663456
   7644,   43.7457809,   48.5418205
   7645,   92.2557449,   72.2586517
   7646,   74.9992142,   89.0290146
   7647,   16.6343002,   35.7693596
   7648,   62.3749657,   29.5833244
   7649,   62.3916626,   79.6627121
   7650,    51.649704,   47.3444176
   7651,   17.3047314,   79.0262909
   7652,   87.1556625,   39.1139412
   7653,   24.1188869,   42.5084381
   7654,   42.5700722,   53.7692833
   7655,     85.53022,   86.6700592
   7656,   83.9559708,   85.9073486
   7657,   44.2356606,   54.7967873
   7658,   14.7609653,    23.656496
   7659,   64.1631088,   19.3678761
   7660,   64.1747742,   69.3584595
   7661,   66.3601151,   20.5325928
   7662,   66.3998566,   70.5093613
   7663,   17.1055336,   72.4573898
   7664,   26.5240307,   46.3133774
   7665,   24.1902599,   45.1954117
   7666,   60.9683189,   30.3694706
   7667,   14.8870306,   73.6808701
   7668,   17.3348293,   29.0756207
   7669,   63.3284111,   11.2572956
   7670,   90.3986664,   51.5435524
   7671,   92.1317291,   39.8418045
   7672,   63.6691055,   14.8788939
   7673,   63.6741562,   64.8544464
   7674,   19.8948498,    77.039238
   7675,    21.671505,   42.1440506
   7676,   57.8634987,    40.360836
   7677,   57.1566467,   57.2131844
   7678,   86.0528488,   68.7440033
   7679,   53.0535622,   54.7972946
   7680,   20.2770786,   59.0529213
   7681,   51.2352791,   97.5206909
   7682,   46.1570892,   95.3696136
   7683,   84.3832092,   89.1836166
   7684,   14.5059786,    14.498373
   7685,   14.5245142,    85.508522
   7686,   13.9496031,   81.7536163
   7687,   11.0936775,   21.0907001
   7688,   13.8958406,   19.5897598
   7689,   80.3417892,   13.7758045
   7690,   79.0107193,   11.0479479
   7691,   89.0791931,   16.3697453
   7692,   86.1595688,   18.0047836
   7693,   13.9510431,   80.3971481
   7694,   16.9767685,   22.4216957
   7695,   10.8849869,   53.4385414
   7696,    19.257637,   61.1953239
   7697,   26.5121956,   40.8914757
   7698,   16.3363724,   64.2434235
   7699,   17.8845387,   67.0348434
   7700,    25.801302,   39.4093895
   7701,   66.3151855,   26.5639114
   7702,    66.309967,   76.5668793
   7703,   45.9140053,   47.6257477
   7704,   10.9269915,   62.4108505
   7705,   57.3648338,   86.6685791
   7706,   23.4968796,   55.5758286
   7707,   62.7157173,   89.2097092
   7708,   54.5682755,   45.9379692
   7709,   68.6695099,   10.8985233
   7710,   10.9135294,   31.3743935
   7711,    57.692112,   37.4178352
   7712,   41.5514832,     50.94944
   7713,   50.1065636,    48.317131
   7714,   11.7644415,   70.3692245
   7715,   11.6952906,    23.545332
   7716,   11.7551088,   73.5080338
   7717,   76.6004715,   12.0496893
   7718,   86.0633087,   16.4918461
   7719,   11.7415247,   39.1674118
   7720,   70.3205566,   88.2276382
   7721,   73.4521408,   88.2020874
   7722,   32.8533173,    47.651783
   7723,   42.2063332,   49.5802155
   7724,   11.7628021,   76.5824203
   7725,   63.8704796,   77.5024033
   7726,   63.8831444,   27.4840183
   7727,   11.7072506,   42.2304192
   7728,   82.9264069,   84.4323578
   7729,   58.7783813,   88.8775253
   7730,   76.5637207,   88.2277451
   7731,   17.4635105,   36.8810425
   7732,   63.7618675,   28.8507309
   7733,   63.7615395,   78.8809814
   7734,   61.0297966,   80.5502701
   7735,   65.0250092,    92.343399
   7736,   7.58859396,   65.0470581
   7737,   92.1806183,   75.7421494
   7738,   15.0756779,   35.8196907
   7739,   66.1959839,   7.70068693
   7740,   7.69865847,   33.8389816
   7741,   85.1375504,   63.8736992
   7742,   91.3674088,   73.2389603
   7743,   20.2994461,   41.3259659
   7744,   22.8662586,   60.5009155
   7745,   14.0126762,   78.9011154
   7746,   11.6361752,   57.8314133
   7747,   36.4843063,   50.9687119
   7748,    63.503952,   63.5168495
   7749,   63.4965363,    13.566843
   7750,   85.2786331,   23.2038422
   7751,   86.9064255,   36.0480843
   7752,    15.005558,   32.8804665
   7753,   86.8902893,   48.5466957
   7754,     79.68396,   9.93907356
   7755,    9.9539547,   20.3504906
   7756,    24.538784,   88.9419327
   7757,   10.9116402,   24.8388996
   7758,   75.0550232,   11.0302525
   7759,   91.8846283,   38.4869728
   7760,   10.8491135,   59.3436089
   7761,   3.32060957,   51.6526184
   7762,    42.819725,   51.1384811
   7763,   58.4926567,   57.5289917
   7764,   51.4135971,   96.2221909
   7765,   19.5062084,   57.9021759
   7766,   45.4582939,   49.0103951
   7767,   35.1673889,    51.186161
   7768,   35.8373489,   49.5949097
   7769,   57.8980293,   55.8617554
   7770,   47.1091537,   48.3162613
   7771,   90.9155121,    76.460907
   7772,   85.8485794,    65.011528
   7773,   82.9922562,   89.9557037
   7774,   23.5296936,   54.0332413
   7775,   85.9724655,   24.3313866
   7776,   83.6026535,   63.9085503
   7777,   83.7225418,     23.22649
   7778,   64.6550751,   11.4015474
   7779,   10.3053646,   52.0828247
   7780,    86.148468,     40.22089
   7781,   64.7919922,   63.7704391
   7782,   64.7921371,    13.806694
   7783,   82.1869736,   85.9184952
   7784,   53.1474648,   48.2821198
   7785,   18.4290104,   79.7561951
   7786,    23.424057,   43.8704033
   7787,   17.8854103,   61.3706436
   7788,   13.9618769,   25.0321922
   7789,   67.1371841,   21.8604565
   7790,   67.1648254,   71.8481064
   7791,   45.1912384,   56.4064522
   7792,   64.1028519,   12.5087957
   7793,   18.4638386,   29.8115921
   7794,   14.1071968,   75.0656433
   7795,   22.8108273,   42.7540436
   7796,   60.1709633,   88.7174301
   7797,   13.2315683,   57.8416786
   7798,   13.8492165,   18.2190247
   7799,    78.906662,   13.6703033
   7800,   81.6533279,   13.8466063
   7801,   12.0077734,   64.0095673
   7802,   10.0601044,   60.8887405
   7803,   70.1322403,   10.1637125
   7804,   67.2058945,   11.6079111
   7805,   64.2835007,    88.573204
   7806,   61.2494545,   89.8225632
   7807,    16.357008,   67.0010452
   7808,   11.6992168,   32.8829803
   7809,    10.221632,    29.869606
   7810,   67.1473923,   25.4169159
   7811,   67.1430054,   75.4205704
   7812,   86.6941452,   67.2437057
   7813,   85.3251495,   70.2542191
   7814,   27.1978512,   39.6848869
   7815,   51.5798531,   54.0075989
   7816,   54.4984932,   55.5011673
   7817,   55.5975494,   45.1386719
   7818,   63.7446136,   30.3980904
   7819,   56.8823357,   35.9348831
   7820,    63.776516,   80.4429932
   7821,   59.7474174,   79.8476028
   7822,   48.5944252,   49.1384964
   7823,   14.2038746,   34.3732262
   7824,   16.7385368,   21.0623341
   7825,   14.1334438,    77.598938
   7826,   86.2026443,   37.5184975
   7827,   86.0859375,   49.9402695
   7828,   82.0525894,    83.046257
   7829,    64.355278,   68.2002716
   7830,   64.3401184,   18.2152691
   7831,   64.1392517,   62.3874207
   7832,   17.5894127,   38.2350616
   7833,   10.2495947,   26.2685413
   7834,   73.5605927,    10.207346
   7835,   89.4389877,   72.9661713
   7836,   20.2495384,   42.9672546
   7837,   16.9853764,   71.1044693
   7838,   11.6890001,   60.8385544
   7839,   73.5526123,   11.7610931
   7840,   26.4316902,   47.6661911
   7841,   25.6779213,   88.9370804
   7842,   84.9512177,   17.3806973
   7843,   58.6120224,   38.8911705
   7844,   13.9201736,   21.1751614
   7845,   61.1238327,   82.1236877
   7846,    88.126976,   51.4846649
   7847,   34.2953873,   48.5265999
   7848,   58.4583244,   30.3164482
   7849,   60.9302673,    31.956459
   7850,   21.1536579,    77.219223
   7851,   31.3941021,     48.43433
   7852,   72.4011688,   11.0063238
   7853,   80.5171432,   83.0562592
   7854,   57.0400963,   30.1326046
   7855,   57.9396782,   31.7746029
   7856,   77.4629135,   13.5641975
   7857,   14.8493052,   67.0487061
   7858,   63.7661285,   31.9328022
   7859,   63.8481598,   82.0003662
   7860,   58.4976082,   35.9641647
   7861,   56.8714104,    44.984272
   7862,   8.92911148,   51.5441513
   7863,   22.6346855,    45.189415
   7864,   15.3008938,   20.3879623
   7865,   13.9588585,   22.5272179
   7866,   61.5464973,   88.5427246
   7867,     48.58078,   50.7634277
   7868,   86.1226807,   41.5181847
   7869,   82.8385239,   62.4970131
   7870,   82.9303436,   21.8477879
   7871,   22.2003269,    54.754921
   7872,   56.9261284,   54.6309357
   7873,   37.4248924,   48.5265083
   7874,   82.8907928,   91.2875824
   7875,   44.2007942,   51.6310463
   7876,    85.322113,   48.5462341
   7877,    86.788269,   51.3670731
   7878,   85.3148193,   36.0670052
   7879,   17.1704693,   62.8202057
   7880,   13.2055502,   23.6227074
   7881,   14.8006849,   26.5039883
   7882,   67.8538971,   20.4888382
   7883,   66.4229889,   23.2405529
   7884,   51.6270523,   49.0899773
   7885,   54.6148415,   47.4745445
   7886,   66.4297638,   73.2380371
   7887,   67.9493332,   70.4422455
   7888,   13.3605995,   73.6270523
   7889,   14.9153452,   76.4839783
   7890,    58.098484,   80.1149902
   7891,    65.809166,   10.7552071
   7892,   79.5490036,   14.8326588
   7893,   82.9549484,   87.1069717
   7894,   60.9109802,   87.3890228
   7895,   17.0579014,   68.1640625
   7896,   67.8592072,   26.5382233
   7897,   67.8433456,   76.5475998
   7898,   13.3642721,   76.4529953
   7899,   13.4753342,   35.8898354
   7900,   64.8633575,   29.6256657
   7901,   64.8755341,   79.6482315
   7902,   65.5037231,   17.3497124
   7903,   65.5338058,   67.2995148
   7904,   11.5763025,   25.9667225
   7905,   63.3446083,   60.9961281
   7906,   19.0137749,   38.9033508
   7907,   85.1557922,   67.3069153
   7908,   86.1953201,   71.4956894
   7909,   46.0678711,   54.9166069
   7910,   54.5019531,   53.9449005
   7911,   50.0932007,   54.7617111
   7912,   13.3036041,   60.7720222
   7913,   73.5212631,   13.3023405
   7914,   15.6029921,   70.3477402
   7915,   82.7370987,   81.8267746
   7916,   83.5780869,    17.607275
   7917,    24.990799,    48.386734
   7918,   85.8574524,   66.1450348
   7919,   62.5180016,   82.8666077
   7920,   60.0772896,   57.8323631
   7921,   35.8363457,   47.7265854
   7922,   89.1943359,   76.2240219
   7923,   29.9281425,   47.6554947
   7924,   32.7981682,   49.2393036
   7925,   60.1852684,   38.8113747
   7926,   17.3991203,   30.5217495
   7927,   17.2930317,    80.463829
   7928,   20.2612915,   44.5417557
   7929,   14.0290947,   56.3836784
   7930,   64.9624786,   60.9893875
   7931,   11.7929192,   29.9576664
   7932,   52.6293716,   95.5764008
   7933,   70.1150131,   11.7065334
   7934,   66.3394547,   63.8731689
   7935,   25.9499092,   54.1389046
   7936,   66.3272018,   13.9959812
   7937,   11.3786783,   27.3327408
   7938,   27.2854691,   54.3616676
   7939,   12.9728489,   26.5470142
   7940,   26.4836578,   52.7407112
   7941,   83.5967255,   67.3231659
   7942,   54.6009598,   52.3251762
   7943,    16.196167,     79.72155
   7944,   82.6409912,   80.4772263
   7945,   71.2576675,   10.9912987
   7946,   11.1494856,   28.7354927
   7947,   16.2513771,   29.8098164
   7948,   17.2655964,   81.7722168
   7949,   82.9773102,   88.4486389
   7950,   70.1972198,   13.0504446
   7951,   13.3551149,   29.9773426
   7952,   85.2448883,   51.3004341
   7953,    86.358078,   72.8621979
   7954,   17.4167614,   31.8171711
   7955,   79.7574234,   84.4382248
   7956,   20.8458462,   55.2285004
   7957,    59.490036,   32.6984482
   7958,    48.711235,   55.5146179
   7959,   14.0754299,   65.7693024
   7960,   62.3537216,   32.7791328
   7961,   51.6157341,   50.7336006
   7962,   87.1937637,   42.2941132
   7963,   57.6859055,   34.5702095
   7964,   57.5096245,   43.2928352
   7965,   56.8915901,   33.1878548
   7966,    63.955204,   83.5449295
   7967,   82.0654755,   63.9274063
   7968,   83.5861969,   61.0449562
   7969,   82.1262131,   23.2960701
   7970,   83.7713776,   20.4208717
   7971,   58.1689453,   54.4156609
   7972,   67.0564423,   19.4041214
   7973,   67.8843536,   23.2159901
   7974,   67.8948364,   73.2141495
   7975,   67.1666183,   69.3303757
   7976,   14.3910952,   37.1037025
   7977,   60.1873474,    85.986969
   7978,   66.9521255,   18.0849533
   7979,   45.5513763,   50.7702866
   7980,    74.825798,   14.1098614
   7981,   23.3543568,   46.4981232
   7982,   57.9245529,   81.7573929
   7983,   39.0072708,   49.2967186
   7984,   67.0458603,   67.9777374
   7985,    14.245532,   71.1532364
   7986,   16.9710312,   69.5276031
   7987,   61.7128716,   61.0508957
   7988,   54.5881462,   49.0709534
   7989,   82.9582672,     19.04879
   7990,   23.8774319,   47.6517944
   7991,   26.4344883,   49.2564812
   7992,   61.1684113,   83.6350021
   7993,   29.9536343,   49.2378502
   7994,   21.3427143,   45.2188911
   7995,   60.8538818,   37.4076157
   7996,   45.3957291,   53.7044182
   7997,   14.8296032,    57.801136
   7998,   13.2835627,   54.9472427
   7999,   66.5287247,   61.1108093
   8000,   88.9461365,   74.5323944
   8001,   14.0974646,    59.292408
   8002,   66.9522247,   66.4048767
   8003,   66.9150772,   16.5286751
   8004,   38.9841919,   47.5877457
   8005,   83.6811295,   36.0321121
   8006,   85.3811722,   38.9751129
   8007,   13.3553009,   32.8861732
   8008,    83.709465,    48.515976
   8009,   17.8098068,   39.5884361
   8010,   61.7916565,   86.0855713
   8011,   60.9639854,   56.3847237
   8012,   10.0514917,   50.8818245
   8013,    50.100544,   51.5625877
   8014,   16.4539261,    61.616333
   8015,   13.9885368,   62.0024033
   8016,   88.5086136,   38.8703041
   8017,   72.3960114,   14.0836706
   8018,   32.7285194,   50.7443123
   8019,   67.1493988,   12.9615479
   8020,   67.1961365,   62.5246887
   8021,   60.8378143,   59.4609718
   8022,   16.4690323,   19.7248421
   8023,   81.8800125,   89.1876831
   8024,   10.7018118,   49.8071251
   8025,   11.2635975,   51.1175766
   8026,   16.7999325,   60.2527809
   8027,   15.0970192,   60.8359795
   8028,   20.3110027,   45.9959373
   8029,   45.5536461,   52.3609581
   8030,   16.2736988,   39.3546753
   8031,   26.4551144,   50.9192657
   8032,   17.2175751,   41.0180664
   8033,   28.7629833,   48.4663162
   8034,   17.1129913,   18.5370522
   8035,   30.0420609,   50.7901573
   8036,   15.0925312,   79.6888351
   8037,     67.83564,   14.1304016
   8038,   69.3173828,   23.2666416
   8039,    69.324585,   73.2703018
   8040,   83.7018356,   51.2990303
   8041,   17.8308907,   19.9691219
   8042,   14.5684376,   38.7295189
   8043,   24.9677658,   51.7173004
   8044,   85.9691544,   52.4627495
   8045,   14.1811981,    31.392931
   8046,   53.1076813,   51.5274773
   8047,   57.1338844,   82.9615097
   8048,   20.3077698,   56.5629463
   8049,   28.8566475,    54.526329
   8050,   13.3544598,    67.137558
   8051,   14.7295656,   64.4072647
   8052,   63.8542938,   33.4859695
   8053,   82.0680313,   61.1125565
   8054,    82.965004,   24.4294872
   8055,   82.1514282,   20.4336014
   8056,    82.824501,   65.0555344
   8057,   80.5579224,   85.8877335
   8058,   78.9603729,   82.9701157
   8059,   76.0872192,   13.6252136
   8060,   65.0522995,   82.6801682
   8061,    82.219101,   17.9109459
   8062,   14.1730394,   72.5072327
   8063,   14.2434196,   69.5792923
   8064,   87.7873764,   73.5995407
   8065,   58.5839005,   85.6834869
   8066,   23.3339424,   49.0414963
   8067,   27.5982189,   48.4711075
   8068,   58.7134666,   82.9622192
   8069,   55.9891281,    48.237133
   8070,   60.0694656,   36.0264206
   8071,   61.6715736,   38.7905502
   8072,   82.9140091,    49.944664
   8073,    82.903862,   37.4664726
   8074,   47.0480385,     51.60355
   8075,   66.9963913,   15.1819639
   8076,   67.0213165,   65.0394058
   8077,   63.3480453,   86.0177078
   8078,   68.0244064,   61.1813965
   8079,   60.2684402,   54.8925323
   8080,   61.0772057,   84.9306107
   8081,   64.0765686,   84.8604965
   8082,   13.6712418,    63.347393
   8083,   73.5683899,   14.8426828
   8084,   48.5781631,   52.4122391
   8085,   67.8710327,   63.9227829
   8086,    61.700695,   57.9319344
   8087,   14.8336105,   54.9674492
   8088,   86.1400604,    42.943119
   8089,   68.1040802,   17.3143139
   8090,   82.8251572,   68.7458725
   8091,   14.9200888,   29.9247131
   8092,   60.8891296,   33.5560303
   8093,   81.2694092,   79.7363205
   8094,   33.8600731,   51.4118919
   8095,   54.5977783,    50.672657
   8096,   31.4245529,   51.5050278
   8097,    80.774826,   17.3744354
   8098,   57.2422981,    85.357132
   8099,   63.1668701,     38.81744
   8100,   64.8591385,   85.9014664
   8101,   14.0837393,   53.7918777
   8102,   80.5455933,   61.1072693
   8103,   16.4297314,    54.935482
   8104,   69.5178375,   61.2010612
   8105,   83.1449051,   25.7865067
   8106,   80.5538559,   20.4113998
   8107,   77.3981934,   82.9072113
   8108,   9.94612885,    48.399929
   8109,   16.3134632,   17.1035957
   8110,    18.766386,   42.0980186
   8111,   70.1697922,   21.9385071
   8112,    70.198761,   71.9421921
   8113,    82.071373,   48.5558624
   8114,   83.7413483,   38.9101601
   8115,   82.0529022,   36.0628738
   8116,   23.5280075,   52.4940834
   8117,   82.7984772,   59.9332886
   8118,    14.158596,   68.2267532
   8119,   13.1496468,   70.3716888
   8120,   82.4387665,   16.4822159
   8121,   86.0954437,   44.4572487
   8122,   64.9831467,   32.6001701
   8123,   51.5993004,    52.360054
   8124,   61.0128593,   39.9495583
   8125,   61.5858574,   36.0704613
   8126,   57.9716568,   84.2794037
   8127,   79.7444458,   81.8364716
   8128,    57.436367,   47.5750389
   8129,   78.9650726,    85.793045
   8130,    12.640687,   51.6074257
   8131,   67.3586655,   60.0176964
   8132,   63.3273621,   57.9509125
   8133,    17.080698,   58.9146576
   8134,   64.1054916,   35.0366821
   8135,   17.9648838,   17.1403503
   8136,    83.649025,    70.223587
   8137,   82.0511322,   67.3259201
   8138,   32.7972679,   52.2481308
   8139,    82.637558,   78.9675674
   8140,   79.8374023,   80.4605637
   8141,    61.786808,   54.9386482
   8142,   66.4104462,   82.4587631
   8143,   69.6855774,   17.3425236
   8144,    11.756176,   67.2288742
   8145,   14.1298199,    28.847723
   8146,   69.4434967,   63.9907494
   8147,   23.4656353,    50.879879
   8148,   58.2766304,   33.3337135
   8149,   48.6602821,    54.010704
   8150,   82.1564407,    51.335144
   8151,   75.8258286,   14.7808256
   8152,   86.6677017,   74.1276398
   8153,    69.410614,   14.2366047
   8154,    29.663147,   53.2115479
   8155,   71.0285263,    14.190959
   8156,   85.3461533,   73.8505402
   8157,   86.1174622,   75.2548904
   8158,   11.6267004,   48.4918175
   8159,   76.4661026,   15.9942541
   8160,   47.5079994,   54.8493042
   8161,   22.0988464,   51.7999458
   8162,   61.0527954,   53.7131004
   8163,   63.3580856,   54.9179344
   8164,   79.8156815,   18.9438534
   8165,   61.1148071,   41.2995377
   8166,    63.846096,   37.4770851
   8167,   79.7637405,   62.4926376
   8168,   17.2184219,   56.3701401
   8169,   70.2662201,   62.5655861
   8170,   84.5758438,   26.3899689
   8171,   87.2483673,   45.2958565
   8172,   76.6179352,   84.3032913
   8173,   17.2197647,   42.8678703
   8174,   70.8280334,   23.5824833
   8175,   69.4072876,   20.4483948
   8176,   70.8392258,   73.6067352
   8177,   69.5104141,   70.4591293
   8178,   80.5911713,   51.3826599
   8179,   13.9900875,   50.5081253
   8180,   16.3893795,   57.7387581
   8181,   60.8565102,   34.9290085
   8182,   57.6230888,   46.1784706
   8183,   64.1763229,   59.4696083
   8184,   63.0994377,   36.1470108
   8185,   79.7266006,   86.9986572
   8186,   82.0434952,   70.1480179
   8187,      79.4263,   16.2187862
   8188,   67.4652557,   58.6839638
   8189,   70.2421799,   19.0401001
   8190,   10.9060221,   65.6398544
   8191,   67.0391235,    81.012413
   8192,   79.9176178,     78.89785
   8193,   83.7504272,   79.6874237
   8194,   82.9345474,   52.4327316
   8195,   82.7562866,   58.5954361
   8196,   14.0707579,   52.3548393
   8197,   70.2957382,   15.6647863
   8198,    30.395031,   54.5621681
   8199,   29.0024166,   51.8292961
   8200,   14.0482531,     27.71171
   8201,   30.2898216,   52.1011162
   8202,   82.6290283,   77.6264572
   8203,   66.3733978,   32.4401627
   8204,   80.5125198,   67.3289642
   8205,   82.1671219,   38.8872299
   8206,    79.734581,   21.8418846
   8207,   57.1292267,   48.9347534
   8208,   17.2349491,   15.7079344
   8209,   19.5980339,   55.4678688
   8210,   32.9638329,   53.8719139
   8211,   80.7416611,   89.1663895
   8212,    21.134058,    54.029171
   8213,   59.0279083,   54.9159355
   8214,   58.4881859,   48.7087402
   8215,    18.238039,    54.868885
   8216,   57.6663857,   50.3436699
   8217,   20.6157017,   52.6992836
   8218,   80.5035019,   70.1224442
   8219,   82.9786835,   40.0628014
   8220,   79.9751434,   77.3383484
   8221,   80.5955353,   38.9406586
   8222,   10.8102331,   46.8968048
   8223,    75.100853,   17.0727539
   8224,   87.1985321,   76.7605515
   8225,   86.1009064,   46.0388985
   8226,   64.1697006,    56.420681
   8227,   80.5279083,   63.9245949
   8228,   78.9885788,    61.049427
   8229,   64.7330704,   38.8735771
   8230,   85.9027405,   25.6408272
   8231,   79.7707748,   50.0273857
   8232,   71.0206375,   61.1592941
   8233,   83.9249725,   73.7141724
   8234,   70.9957428,   20.5134506
   8235,   13.2866268,   48.8121414
   8236,   71.0638351,   70.5450668
   8237,   77.9609375,    16.943346
   8238,   64.9859085,    57.931076
   8239,    77.390831,   85.7182846
   8240,   75.8373795,   82.8613586
   8241,   64.3845367,   36.3417015
   8242,   71.0517883,    17.971756
   8243,   68.8445816,   57.9500313
   8244,   66.2383118,   79.6057968
   8245,   67.7549133,   82.1374283
   8246,   82.8291626,   71.3989944
   8247,   15.5022449,   51.4896164
   8248,   78.7321701,    79.624527
   8249,   29.6381054,   55.6848068
   8250,   27.6640339,   51.7280693
   8251,   67.0253143,   31.0070724
   8252,   80.5127335,   23.3066559
   8253,   78.9408875,   20.3862743
   8254,   79.7386322,    68.740509
   8255,   81.5520325,   76.4347992
   8256,   79.2051849,   17.6553955
   8257,   20.8988056,   51.2348137
   8258,   82.9374542,   53.8050156
   8259,   72.6232147,   73.4562836
   8260,   72.5791931,   23.4291115
   8261,   31.7541027,   54.6688118
   8262,   71.0606384,   63.9748459
   8263,   62.4836273,   42.1075668
   8264,   86.0192108,   78.1663208
   8265,   81.3778305,   57.8347664
   8266,   72.4246216,   17.5460205
   8267,    69.168251,   82.6678696
   8268,   65.4550476,    35.722683
   8269,   85.9339981,   27.1857414
   8270,    67.865654,   79.5783386
   8271,   56.1156769,   51.4197884
   8272,   76.7864456,   14.6204357
   8273,   79.7652664,   37.5393219
   8274,   86.1367416,   47.4001694
   8275,   79.8839264,   75.8125916
   8276,   76.5345688,   17.8307896
   8277,   73.6693954,   16.4044266
   8278,    79.008522,   51.4214821
   8279,   80.4956436,   48.6373329
   8280,   72.6079102,   70.5533066
   8281,   78.9791718,   63.9084778
   8282,   60.0650787,   48.5549736
   8283,   64.9613495,   54.9220619
   8284,   70.2444687,   60.0628738
   8285,   71.1053162,   16.8322392
   8286,   70.3719406,   69.3239822
   8287,    70.206749,   58.7282867
   8288,   67.4772568,   57.1413956
   8289,   16.9985752,   52.2213135
   8290,    67.541954,   83.4911728
   8291,      19.5625,   51.4019623
   8292,   75.8231506,   85.6699677
   8293,   66.2320557,   29.5947323
   8294,   67.7437744,    32.176281
   8295,   78.9659882,   67.3407364
   8296,   82.6064377,   74.7169647
   8297,   85.2353439,   76.6434097
   8298,   84.4203568,   54.5917969
   8299,   66.3184738,   38.8761597
   8300,   72.6529541,   63.8976822
   8301,   82.7143707,   72.8577881
   8302,   77.3879852,   79.4957275
   8303,   78.9800415,    70.154335
   8304,   20.3534203,   50.0054131
   8305,   73.3869934,   21.9598255
   8306,   73.4082565,   71.9357224
   8307,   70.2227859,   65.4116287
   8308,   72.6050644,   61.0549393
   8309,     63.91679,    41.405014
   8310,    61.110218,   42.8500175
   8311,   79.9102554,   58.5612221
   8312,   82.8221893,   57.0592461
   8313,   78.9211349,   23.2819443
   8314,   16.9663754,    50.345417
   8315,   17.9365482,   57.8364906
   8316,   77.4198685,   61.0389824
   8317,   14.6378603,    49.123806
   8318,   74.2647934,   82.8363266
   8319,   69.1810379,   32.7076302
   8320,   14.4433603,   47.6872292
   8321,   66.7689133,   35.1963654
   8322,   16.0385513,   48.5036278
   8323,   67.4535751,   55.5947914
   8324,   67.8736649,   29.5740013
   8325,   79.6611862,   24.4855061
   8326,   67.3989639,   85.0826111
   8327,   77.3259735,   23.3379841
   8328,   73.3354492,   19.0636196
   8329,   70.2198257,   81.1504974
   8330,   70.8575745,   66.5955811
   8331,   74.2436142,   85.6536789
   8332,   19.8452663,   54.2053604
   8333,   87.0534286,     26.39431
   8334,   67.0586624,   78.0686417
   8335,   80.4855499,   36.1433945
   8336,   79.0294571,   38.9272728
   8337,   77.4115067,   63.8948975
   8338,   57.6327667,   52.1749535
   8339,   78.9747314,   48.6513634
   8340,   79.8404388,   52.5469856
   8341,   85.8553467,   53.7889099
   8342,   82.9271164,   55.4542465
   8343,   79.7921829,   59.9227829
   8344,   73.9200821,   17.7922497
   8345,   79.7479172,   65.0603256
   8346,   63.9903603,   40.0225182
   8347,   64.2276459,   53.5591087
   8348,   60.8374596,   49.8534927
   8349,   70.2825165,   57.1427803
   8350,   66.3647995,    57.919136
   8351,   67.5223465,   33.7139397
   8352,   78.7939606,   76.6315765
   8353,   73.4345779,   62.4709206
   8354,   67.0257568,   37.5144844
   8355,    83.924469,   57.8612595
   8356,   76.5904541,   86.8290634
   8357,   79.9902573,   57.0047112
   8358,   21.4335175,   48.4914665
   8359,   79.7549667,   71.2829437
   8360,   74.1641388,   23.3541927
   8361,   72.5802002,   20.5244141
   8362,   74.3058548,    73.338562
   8363,   81.1741638,   73.5317307
   8364,   76.6610184,   78.0354767
   8365,    63.854557,   42.9754333
   8366,   60.0058594,   42.0018425
   8367,   83.4398346,   76.4448166
   8368,   77.3941422,   70.2494736
   8369,   76.6266327,   62.4636688
   8370,   73.4218445,     84.26091
   8371,   79.7401581,   74.2818756
   8372,   61.0607567,   44.4304428
   8373,   77.3942719,   67.3527374
   8374,   70.5749207,   67.9529495
   8375,   19.6225529,   48.5701599
   8376,   18.1817036,   51.3976974
   8377,   83.4293976,   27.1107903
   8378,   82.0554581,    26.948204
   8379,   82.8636246,   28.5038357
   8380,   88.3998032,   26.3022881
   8381,   79.6902008,    47.515583
   8382,   80.0152893,   55.4506378
   8383,   77.4575806,   48.6151657
   8384,   85.8496399,   55.3079033
   8385,   63.8107567,   44.5207558
   8386,   67.9706116,   35.0875244
   8387,    79.961319,    53.891201
   8388,    70.171814,   31.1819572
   8389,   68.8194427,    54.778862
   8390,   67.0697021,   28.0608692
   8391,   76.5581284,   21.9068413
   8392,   70.9927521,   82.6504517
   8393,   69.4564743,   79.6647491
   8394,   71.9932175,   67.2531509
   8395,   78.9710159,    36.171978
   8396,   79.8261337,   40.3005714
   8397,   63.7943039,   52.3955727
   8398,   78.7725449,   57.7436752
   8399,   79.7604294,   72.6769409
   8400,   58.8465157,   51.3920097
   8401,   74.2409668,    63.901844
   8402,   60.1919098,   51.2683182
   8403,   61.5921669,   48.5311394
   8404,   22.7461071,    47.658123
   8405,   67.8509445,    38.771759
   8406,   65.0678787,   42.2673187
   8407,   75.8670502,   61.0670891
   8408,    75.824707,   79.4352722
   8409,   76.5532227,   68.8062515
   8410,   72.6556549,   82.8166275
   8411,   62.4144325,   45.2934875
   8412,   17.9149666,   48.5757103
   8413,   61.2505722,   52.2925606
   8414,   77.4678802,   76.6760864
   8415,   74.1922226,   20.4771957
   8416,   68.7961502,    85.890564
   8417,    74.265419,   61.0292053
   8418,   79.7419128,   66.1986084
   8419,   72.6630402,   85.6793365
   8420,   88.4471893,   79.1661911
   8421,   74.1509323,   70.4633102
   8422,   58.4358025,   44.9959526
   8423,   75.8319092,   63.9013557
   8424,   68.9290466,   35.8913956
   8425,     69.51474,   66.8812103
   8426,   59.8447151,   45.1620064
   8427,   74.2136688,   79.3908157
   8428,   67.6073532,   36.2471542
   8429,   75.9337006,   76.5627518
   8430,   77.4589691,   36.1520424
   8431,   61.4783173,    50.932003
   8432,   84.3862305,   29.5035744
   8433,   80.4167404,   41.7381821
   8434,   86.9228897,   54.5297585
   8435,    71.314415,   85.7976913
   8436,   81.4505768,   54.6208725
   8437,   76.6604385,   49.9854927
   8438,   70.9524689,   32.6544456
   8439,   69.4817963,   29.6772251
   8440,   63.7807693,   46.0382805
   8441,   70.2933273,    55.522892
   8442,   67.4064102,   54.0651741
   8443,   79.6903229,   35.0237236
   8444,   75.7257767,   23.3351879
   8445,    77.341713,   20.4602375
   8446,   73.3690033,    66.455986
   8447,   71.0305862,   79.6607132
   8448,    60.847641,   47.3948174
   8449,   75.7438431,   70.3011627
   8450,    78.374321,   73.4955215
   8451,   60.9620628,   46.0229073
   8452,   76.6070709,   80.6009674
   8453,   73.3509064,    69.367012
   8454,   66.5206985,   42.4604301
   8455,   77.3494873,   57.6463051
   8456,    67.361351,   86.6527634
   8457,   70.1654663,   85.1354294
   8458,   73.4458084,   59.6144753
   8459,   80.4603195,   26.9146099
   8460,   73.4580002,   86.7949753
   8461,   76.6221619,   65.0547791
   8462,   89.2220917,   27.4519444
   8463,   79.6174774,   46.1263161
   8464,    88.522644,   77.7301331
   8465,   17.1993065,   47.0128517
   8466,   75.8108444,    67.343277
   8467,   73.3102036,   68.0209503
   8468,   70.2155838,   86.6231689
   8469,   78.8077469,   54.6884766
   8470,   70.2704086,   35.2251282
   8471,   73.2616501,   77.8041763
   8472,   76.9850769,    74.172493
   8473,   76.6774216,    37.517025
   8474,   85.9001465,   28.7666168
   8475,   82.8609314,   30.2932014
   8476,   81.7548828,   42.0283203
   8477,   72.5106964,    32.692627
   8478,    77.428421,   51.4168434
   8479,   75.9355698,   48.5561867
   8480,   88.0294266,   54.5981293
   8481,   71.0822601,   29.7287178
   8482,   70.1654205,   83.8231659
   8483,   64.9161148,   45.2850723
   8484,   70.2134094,   53.9167137
   8485,   66.3165817,   54.8803444
   8486,   75.7847519,   20.4925327
   8487,   76.4129257,   24.7557564
   8488,   73.4516678,   65.0808945
   8489,   70.2326508,    78.496109
   8490,   76.5907288,   71.6805496
   8491,   76.6015701,    56.174736
   8492,   76.6102295,   81.7416382
   8493,     79.67099,   28.2313709
   8494,   67.1953812,   43.9571266
   8495,   66.2011642,   85.8459167
   8496,   74.4635239,    67.252121
   8497,   79.6584549,   33.6248436
   8498,   72.7766953,    58.150631
   8499,   16.6812191,    45.778141
   8500,    79.458168,   25.8424911
   8501,   63.8558426,   47.3523827
   8502,   67.3225555,    52.500824
   8503,   76.6144867,    66.204155
   8504,   68.1554565,   67.0971527
   8505,   74.3209076,   76.3834686
   8506,   72.6159744,   79.4338913
   8507,   64.8478546,   52.4826775
   8508,    78.146843,   45.3338242
   8509,   67.2917175,   88.2640457
   8510,   82.9525909,   41.4094391
   8511,   13.1694326,   39.3359642
   8512,   70.2077255,   37.0186958
   8513,   69.4072647,   38.6884232
   8514,   79.1253128,   41.4062347
   8515,   20.4057617,   47.3177567
   8516,   80.9576035,   45.2928352
   8517,   13.5246115,   42.2354355
   8518,   5.95660925,    4.8651824
   8519,   11.5420637,   52.3126984
   8520,   73.5143661,   81.7010651
   8521,   82.8250885,   96.6766663
   8522,   40.5975952,   48.4795837
   8523,   76.6543884,   59.9435387
   8524,   53.6224823,   89.1087265
   8525,   73.3959656,   24.7391567
   8526,   73.5590744,   74.8842087
   8527,   20.3786163,   81.9029083
   8528,   75.9134979,   73.1152878
   8529,   86.0341721,   56.6606712
   8530,   86.1994324,    19.323225
   8531,   81.6733093,   29.4973431
   8532,   65.8318481,   89.0935059
   8533,   10.8574524,   34.4123917
   8534,   19.2232571,   45.4035759
   8535,   82.8372345,   47.1415329
   8536,   82.8216476,   34.6943359
   8537,   85.0128479,    92.339859
   8538,   71.4102554,   57.9764442
   8539,    11.793273,   35.9892616
   8540,   57.6457558,   53.5232201
   8541,   67.2155228,   39.9477692
   8542,   18.0926514,   70.2862244
   8543,   15.9046545,   42.0869713
   8544,   76.5558624,   19.2909107
   8545,   82.8221283,    66.189537
   8546,   76.7433014,   47.4535027
   8547,   16.9813824,   44.4804993
   8548,   63.1141891,   48.5137787
   8549,   13.4102888,    64.653923
   8550,   17.1781292,   53.6662292
   8551,   87.0605621,   29.6197166
   8552,   70.3593369,   28.4787712
   8553,   91.4992294,   5.27571058
   8554,   8.65711308,   94.5585098
   8555,    5.3053751,   8.35129738
   8556,    77.486557,   38.9365692
   8557,   87.0894012,   32.7565575
   8558,   86.0719604,   34.9020233
   8559,   66.4592285,   36.4005318
   8560,    13.061203,   45.2472496
   8561,   93.8743668,   29.2295589
   8562,   79.3057556,   42.7678986
   8563,   64.4910583,   51.3111343
   8564,   64.6966934,   48.4394531
   8565,   65.9217529,   51.7587395
   8566,   77.7496643,   41.8816605
   8567,   82.9094391,   43.0925903
   8568,   14.8035345,   41.6399574
   8569,    83.377594,   45.7402267
   8570,   72.7827759,    26.153429
   8571,   83.3543396,     33.52668
   8572,   72.8124313,   76.2864456
   8573,   76.9589844,   25.9542503
   8574,   70.2510757,   33.8529663
   8575,   75.9378204,   36.0844307
   8576,   75.8513947,    51.422924
   8577,   76.8076172,   75.4975815
   8578,   73.4505234,   31.3387108
   8579,   75.5422516,   57.6536217
   8580,   64.9118347,   89.6408463
   8581,   80.3530197,   29.5024147
   8582,   68.1801987,    42.741497
   8583,   70.2690887,   77.1236115
   8584,    15.603159,   45.1042709
   8585,   78.0792999,   26.5381908
   8586,   68.7493057,   51.6470985
   8587,    14.288868,   45.9659119
   8588,   76.7815018,   46.1188011
   8589,   79.5070343,   44.4387283
   8590,   70.1572342,   52.3555336
   8591,    64.174324,   87.0800095
   8592,   14.1870623,   40.4476128
   8593,   66.3035126,   45.3149147
   8594,   85.8366699,   30.3666668
   8595,   85.8572159,   31.9666538
   8596,   70.3639374,   27.0550346
   8597,   85.9446487,   33.5478706
   8598,   14.2235746,   44.0971451
   8599,   76.7898941,   40.3748093
   8600,   74.1689072,   58.3920212
   8601,   77.2316513,   72.8457108
   8602,   88.4463577,   56.9299164
   8603,   67.6066284,   41.2628059
   8604,   78.2122269,   32.8223343
   8605,   77.4236069,   54.7732391
   8606,   76.7406464,   27.2963409
   8607,    73.891243,   57.0395889
   8608,    67.964035,   45.3760376
   8609,   74.2486649,   51.4418335
   8610,   75.8769302,   54.7750206
   8611,   78.8758163,   29.5177288
   8612,   84.0372009,   42.1556206
   8613,   82.1253128,    45.982605
   8614,   84.7431259,   45.1877174
   8615,   14.8486004,   42.7242012
   8616,   82.2308884,   33.5406647
   8617,   71.4700546,   26.2726631
   8618,   74.0740433,   25.8248653
   8619,   71.5298615,   76.4935837
   8620,   76.6327286,   52.5699921
   8621,   76.5891113,   58.8118896
   8622,   72.7186279,   29.7936649
   8623,   74.1000671,   32.9869919
   8624,   79.1475601,   27.1310425
   8625,   67.3271866,   50.8671684
   8626,    82.333168,    44.666523
   8627,   76.6664734,   44.5727425
   8628,   76.8185501,   33.6394348
   8629,   79.6446152,    31.969799
   8630,   75.8932266,   38.9539871
   8631,   74.3543549,   35.9582443
   8632,    63.856266,   49.9102325
   8633,   82.7822342,    32.152729
   8634,   73.8621216,   27.1812191
   8635,   81.0973816,    32.799736
   8636,   75.4512405,   26.2826633
   8637,   77.3976593,   29.6384983
   8638,   75.5545044,   45.3930588
   8639,   62.8227196,   51.4265709
   8640,   73.4556198,   49.9690933
   8641,   76.6373138,   53.6898079
   8642,   83.6062469,   44.4350929
   8643,   79.6348495,   30.5981197
   8644,     76.74646,   34.9878159
   8645,   73.7446442,   55.7015953
   8646,   70.2974548,   25.3169994
   8647,   70.2938919,   75.3810425
   8648,   74.3675537,   29.8598652
   8649,   76.8028107,   32.0941124
   8650,   73.4992981,   37.3722954
   8651,   70.1434326,   50.8255424
   8652,   85.1031113,   42.1514397
   8653,   69.6047821,   45.3479576
   8654,   74.5647964,   54.8062019
   8655,   70.1931305,   40.0947571
   8656,   76.4510498,   42.9926186
   8657,     73.55159,    34.529377
   8658,   75.6591034,   32.9098473
   8659,   74.3227768,   48.4838829
   8660,   84.4680023,   32.8087769
   8661,   17.9478912,   45.5949402
   8662,   71.2800064,   51.5238075
   8663,   15.1538324,   39.8123207
   8664,   73.1557617,   54.3298111
   8665,   75.9365616,   29.7533169
   8666,    72.633255,   51.4353371
   8667,   69.7560272,   24.2462196
   8668,   69.7584381,   74.2720184
   8669,    72.996933,   33.6242828
   8670,   73.6381531,   28.6023197
   8671,   74.2498627,   38.8999634
   8672,   70.1676788,    49.301815
   8673,   70.3568497,   43.9901237
   8674,    69.401619,   41.5801048
   8675,   71.0164261,   38.6686401
   8676,   72.7561417,   35.8929939
   8677,   76.2211914,   41.6133957
   8678,   73.4522858,   47.0549431
   8679,    69.502861,   42.9861603
   8680,   73.3668518,   52.6788635
   8681,   71.3590469,     45.33601
   8682,   70.8913193,   41.2304726
   8683,   75.0463867,   42.2564011
   8684,   72.6586609,    48.525013
   8685,   74.0274353,   45.4660225
   8686,   72.6246796,   38.7764969
   8687,   68.8593903,   48.5381737
   8688,   71.2885208,   48.5450287
   8689,    71.395401,   35.9405022
   8690,   69.1945648,   26.3426704
   8691,    69.162262,   76.3759613
   8692,    70.343277,   46.4873734
   8693,   67.0709991,   46.7338562
   8694,   67.4570999,   49.2537041
   8695,   73.6484756,   42.8861694
   8696,   70.7659912,   42.5332832
   8697,   72.3369293,   41.7551918
   8698,   73.3167877,   40.2825165
   8699,   66.3249969,   48.1742973
   8700,   70.2001419,   47.8046303
   8701,   67.7067947,   47.9147415
   8702,   72.6576462,   45.9648857
   8703,   73.8815613,   41.5479317
   8704,   8.56469536,   83.7115173
   8705,   16.2814178,   8.56702614
   8706,     71.50811,   54.6141968
   8707,   43.1199608,   52.3695526
   8708,   56.6550751,   79.5654068
   8709,   76.6738968,   28.6121674
   8710,   93.3451996,   45.1718483
   8711,   60.0432205,   82.9103775
   8712,   76.7154236,   30.7837543
   8713,    48.378273,   3.41710377
   8714,   73.4971161,   80.5621033
   8715,   94.6306915,   51.0897331
   8716,   6.59371138,    7.6129508
   8717,   46.6171379,   42.2277946
   8718,   72.7311783,   44.9135818
   8719,    72.299469,   77.1545944
   8720,   82.8730087,    9.5131979
   8721,   17.1383877,   90.4236145
   8722,   9.51461029,     17.12887
   8723,   6.90727615,   93.2014542
   8724,   97.3436966,    22.860033
   8725,   51.1337242,   46.0609932
   8726,   90.3087234,   20.4266815
   8727,   55.6318741,   54.6853943
   8728,   67.1726074,   74.3128433
   8729,    67.171196,   24.3106079
   8730,   94.6196365,   60.4891357
   8731,   92.3024368,   71.1472626
   8732,   2.67606211,   14.6026554
   8733,   14.6045322,    97.323616
   8734,     85.39711,   2.67705727
   8735,   44.3209114,   57.6767349
   8736,   58.6278915,   41.8779068
   8737,    46.178051,   44.9618301
   8738,    73.502861,   44.1726112
   8739,   92.4474869,   50.5664139
*Element, type=CPS4
   1,  147,  148,  902,  888
   2,  148,  149,  903,  902
   3,  149,  150,  904,  903
   4,  150,  151,  905,  904
   5,  151,  152,  906,  905
   6,  152,  153,  639,  906
   7,  888,  902,  907,  887
   8,  902,  903,  908,  907
   9,  903,  904,  909,  908
  10,  904,  905,  910,  909
  11,  905,  906,  911,  910
  12,  906,  639,  640,  911
  13,  887,  907,  912,  886
  14,  907,  908,  913,  912
  15,  908,  909,  914,  913
  16,  909,  910,  915,  914
  17,  910,  911,  916,  915
  18,  911,  640,  641,  916
  19,  886,  912,  917,  885
  20,  912,  913,  918,  917
  21,  913,  914,  919,  918
  22,  914,  915,  920,  919
  23,  915,  916,  921,  920
  24,  916,  641,  642,  921
  25,  885,  917,  922,  884
  26,  917,  918,  923,  922
  27,  918,  919,  924,  923
  28,  919,  920,  925,  924
  29,  920,  921,  926,  925
  30,  921,  642,  643,  926
  31,  884,  922,  927,  883
  32,  922,  923,  928,  927
  33,  923,  924,  929,  928
  34,  924,  925,  930,  929
  35,  925,  926,  931,  930
  36,  926,  643,  644,  931
  37,  883,  927,  932,  882
  38,  927,  928,  933,  932
  39,  928,  929,  934,  933
  40,  929,  930,  935,  934
  41,  930,  931,  936,  935
  42,  931,  644,  645,  936
  43,  882,  932,  937,  881
  44,  932,  933,  938,  937
  45,  933,  934,  939,  938
  46,  934,  935,  940,  939
  47,  935,  936,  941,  940
  48,  936,  645,  646,  941
  49,  881,  937,  942,  880
  50,  937,  938,  943,  942
  51,  938,  939,  944,  943
  52,  939,  940,  945,  944
  53,  940,  941,  946,  945
  54,  941,  646,  647,  946
  55,  880,  942,  947,  879
  56,  942,  943,  948,  947
  57,  943,  944,  949,  948
  58,  944,  945,  950,  949
  59,  945,  946,  951,  950
  60,  946,  647,  648,  951
  61,  879,  947,  952,  878
  62,  947,  948,  953,  952
  63,  948,  949,  954,  953
  64,  949,  950,  955,  954
  65,  950,  951,  956,  955
  66,  951,  648,  649,  956
  67,  878,  952,  957,  877
  68,  952,  953,  958,  957
  69,  953,  954,  959,  958
  70,  954,  955,  960,  959
  71,  955,  956,  961,  960
  72,  956,  649,  650,  961
  73,  877,  957,  962,  876
  74,  957,  958,  963,  962
  75,  958,  959,  964,  963
  76,  959,  960,  965,  964
  77,  960,  961,  966,  965
  78,  961,  650,  651,  966
  79,  876,  962,  967,  875
  80,  962,  963,  968,  967
  81,  963,  964,  969,  968
  82,  964,  965,  970,  969
  83,  965,  966,  971,  970
  84,  966,  651,  652,  971
  85,  875,  967,  972,  874
  86,  967,  968,  973,  972
  87,  968,  969,  974,  973
  88,  969,  970,  975,  974
  89,  970,  971,  976,  975
  90,  971,  652,  653,  976
  91,  874,  972,  977,  873
  92,  972,  973,  978,  977
  93,  973,  974,  979,  978
  94,  974,  975,  980,  979
  95,  975,  976,  981,  980
  96,  976,  653,  654,  981
  97,  873,  977,  982,  872
  98,  977,  978,  983,  982
  99,  978,  979,  984,  983
 100,  979,  980,  985,  984
 101,  980,  981,  986,  985
 102,  981,  654,  655,  986
 103,  872,  982,  987,  871
 104,  982,  983,  988,  987
 105,  983,  984,  989,  988
 106,  984,  985,  990,  989
 107,  985,  986,  991,  990
 108,  986,  655,  656,  991
 109,  871,  987,  992,  870
 110,  987,  988,  993,  992
 111,  988,  989,  994,  993
 112,  989,  990,  995,  994
 113,  990,  991,  996,  995
 114,  991,  656,  657,  996
 115,  870,  992,  869,  864
 116,  992,  993,  868,  869
 117,  993,  994,  867,  868
 118,  994,  995,  866,  867
 119,  995,  996,  865,  866
 120,  996,  657,  658,  865
 121,  658,    1,  310,  865
 122,  865,  310,  309,  866
 123,  866,  309,  308,  867
 124,  867,  308,  307,  868
 125,  868,  307,  306,  869
 126,  869,  306,  305,  864
 127,  305,  304,  892,  864
 128,  304,  303,  891,  892
 129,  303,  302,  890,  891
 130,  302,  301,  889,  890
 131,  301,  300,  659,  889
 132,  659,  660,  997,  889
 133,  660,  661,  998,  997
 134,  661,  662,  999,  998
 135,  662,  663, 1000,  999
 136,  663,  664, 1001, 1000
 137,  664,  665, 1002, 1001
 138,  665,  666, 1003, 1002
 139,  666,  667, 1004, 1003
 140,  667,  668, 1005, 1004
 141,  668,  113,  114, 1005
 142,  889,  997, 1006,  890
 143,  997,  998, 1007, 1006
 144,  998,  999, 1008, 1007
 145,  999, 1000, 1009, 1008
 146, 1000, 1001, 1010, 1009
 147, 1001, 1002, 1011, 1010
 148, 1002, 1003, 1012, 1011
 149, 1003, 1004, 1013, 1012
 150, 1004, 1005, 1014, 1013
 151, 1005,  114,  115, 1014
 152,  890, 1006, 1015,  891
 153, 1006, 1007, 1016, 1015
 154, 1007, 1008, 1017, 1016
 155, 1008, 1009, 1018, 1017
 156, 1009, 1010, 1019, 1018
 157, 1010, 1011, 1020, 1019
 158, 1011, 1012, 1021, 1020
 159, 1012, 1013, 1022, 1021
 160, 1013, 1014, 1023, 1022
 161, 1014,  115,  116, 1023
 162,  891, 1015, 1024,  892
 163, 1015, 1016, 1025, 1024
 164, 1016, 1017, 1026, 1025
 165, 1017, 1018, 1027, 1026
 166, 1018, 1019, 1028, 1027
 167, 1019, 1020, 1029, 1028
 168, 1020, 1021, 1030, 1029
 169, 1021, 1022, 1031, 1030
 170, 1022, 1023, 1032, 1031
 171, 1023,  116,  117, 1032
 172,  892, 1024,  901,  864
 173, 1024, 1025,  900,  901
 174, 1025, 1026,  899,  900
 175, 1026, 1027,  898,  899
 176, 1027, 1028,  897,  898
 177, 1028, 1029,  896,  897
 178, 1029, 1030,  895,  896
 179, 1030, 1031,  894,  895
 180, 1031, 1032,  893,  894
 181, 1032,  117,  118,  893
 182,  118,  119, 1033,  893
 183,  119,  120, 1034, 1033
 184,  120,  121, 1035, 1034
 185,  121,  122, 1036, 1035
 186,  122,  123, 1037, 1036
 187,  123,  124, 1038, 1037
 188,  124,  125, 1039, 1038
 189,  125,  126, 1040, 1039
 190,  126,  127, 1041, 1040
 191,  127,  128, 1042, 1041
 192,  128,  129, 1043, 1042
 193,  129,  130, 1044, 1043
 194,  130,  131, 1045, 1044
 195,  131,  132, 1046, 1045
 196,  132,  133, 1047, 1046
 197,  133,  134, 1048, 1047
 198,  134,  135, 1049, 1048
 199,  135,  136, 1050, 1049
 200,  136,  137, 1051, 1050
 201,  137,    2,  138, 1051
 202,  893, 1033, 1052,  894
 203, 1033, 1034, 1053, 1052
 204, 1034, 1035, 1054, 1053
 205, 1035, 1036, 1055, 1054
 206, 1036, 1037, 1056, 1055
 207, 1037, 1038, 1057, 1056
 208, 1038, 1039, 1058, 1057
 209, 1039, 1040, 1059, 1058
 210, 1040, 1041, 1060, 1059
 211, 1041, 1042, 1061, 1060
 212, 1042, 1043, 1062, 1061
 213, 1043, 1044, 1063, 1062
 214, 1044, 1045, 1064, 1063
 215, 1045, 1046, 1065, 1064
 216, 1046, 1047, 1066, 1065
 217, 1047, 1048, 1067, 1066
 218, 1048, 1049, 1068, 1067
 219, 1049, 1050, 1069, 1068
 220, 1050, 1051, 1070, 1069
 221, 1051,  138,  139, 1070
 222,  894, 1052, 1071,  895
 223, 1052, 1053, 1072, 1071
 224, 1053, 1054, 1073, 1072
 225, 1054, 1055, 1074, 1073
 226, 1055, 1056, 1075, 1074
 227, 1056, 1057, 1076, 1075
 228, 1057, 1058, 1077, 1076
 229, 1058, 1059, 1078, 1077
 230, 1059, 1060, 1079, 1078
 231, 1060, 1061, 1080, 1079
 232, 1061, 1062, 1081, 1080
 233, 1062, 1063, 1082, 1081
 234, 1063, 1064, 1083, 1082
 235, 1064, 1065, 1084, 1083
 236, 1065, 1066, 1085, 1084
 237, 1066, 1067, 1086, 1085
 238, 1067, 1068, 1087, 1086
 239, 1068, 1069, 1088, 1087
 240, 1069, 1070, 1089, 1088
 241, 1070,  139,  140, 1089
 242,  895, 1071, 1090,  896
 243, 1071, 1072, 1091, 1090
 244, 1072, 1073, 1092, 1091
 245, 1073, 1074, 1093, 1092
 246, 1074, 1075, 1094, 1093
 247, 1075, 1076, 1095, 1094
 248, 1076, 1077, 1096, 1095
 249, 1077, 1078, 1097, 1096
 250, 1078, 1079, 1098, 1097
 251, 1079, 1080, 1099, 1098
 252, 1080, 1081, 1100, 1099
 253, 1081, 1082, 1101, 1100
 254, 1082, 1083, 1102, 1101
 255, 1083, 1084, 1103, 1102
 256, 1084, 1085, 1104, 1103
 257, 1085, 1086, 1105, 1104
 258, 1086, 1087, 1106, 1105
 259, 1087, 1088, 1107, 1106
 260, 1088, 1089, 1108, 1107
 261, 1089,  140,  141, 1108
 262,  896, 1090, 1109,  897
 263, 1090, 1091, 1110, 1109
 264, 1091, 1092, 1111, 1110
 265, 1092, 1093, 1112, 1111
 266, 1093, 1094, 1113, 1112
 267, 1094, 1095, 1114, 1113
 268, 1095, 1096, 1115, 1114
 269, 1096, 1097, 1116, 1115
 270, 1097, 1098, 1117, 1116
 271, 1098, 1099, 1118, 1117
 272, 1099, 1100, 1119, 1118
 273, 1100, 1101, 1120, 1119
 274, 1101, 1102, 1121, 1120
 275, 1102, 1103, 1122, 1121
 276, 1103, 1104, 1123, 1122
 277, 1104, 1105, 1124, 1123
 278, 1105, 1106, 1125, 1124
 279, 1106, 1107, 1126, 1125
 280, 1107, 1108, 1127, 1126
 281, 1108,  141,  142, 1127
 282,  897, 1109, 1128,  898
 283, 1109, 1110, 1129, 1128
 284, 1110, 1111, 1130, 1129
 285, 1111, 1112, 1131, 1130
 286, 1112, 1113, 1132, 1131
 287, 1113, 1114, 1133, 1132
 288, 1114, 1115, 1134, 1133
 289, 1115, 1116, 1135, 1134
 290, 1116, 1117, 1136, 1135
 291, 1117, 1118, 1137, 1136
 292, 1118, 1119, 1138, 1137
 293, 1119, 1120, 1139, 1138
 294, 1120, 1121, 1140, 1139
 295, 1121, 1122, 1141, 1140
 296, 1122, 1123, 1142, 1141
 297, 1123, 1124, 1143, 1142
 298, 1124, 1125, 1144, 1143
 299, 1125, 1126, 1145, 1144
 300, 1126, 1127, 1146, 1145
 301, 1127,  142,  143, 1146
 302,  898, 1128, 1147,  899
 303, 1128, 1129, 1148, 1147
 304, 1129, 1130, 1149, 1148
 305, 1130, 1131, 1150, 1149
 306, 1131, 1132, 1151, 1150
 307, 1132, 1133, 1152, 1151
 308, 1133, 1134, 1153, 1152
 309, 1134, 1135, 1154, 1153
 310, 1135, 1136, 1155, 1154
 311, 1136, 1137, 1156, 1155
 312, 1137, 1138, 1157, 1156
 313, 1138, 1139, 1158, 1157
 314, 1139, 1140, 1159, 1158
 315, 1140, 1141, 1160, 1159
 316, 1141, 1142, 1161, 1160
 317, 1142, 1143, 1162, 1161
 318, 1143, 1144, 1163, 1162
 319, 1144, 1145, 1164, 1163
 320, 1145, 1146, 1165, 1164
 321, 1146,  143,  144, 1165
 322,  899, 1147, 1166,  900
 323, 1147, 1148, 1167, 1166
 324, 1148, 1149, 1168, 1167
 325, 1149, 1150, 1169, 1168
 326, 1150, 1151, 1170, 1169
 327, 1151, 1152, 1171, 1170
 328, 1152, 1153, 1172, 1171
 329, 1153, 1154, 1173, 1172
 330, 1154, 1155, 1174, 1173
 331, 1155, 1156, 1175, 1174
 332, 1156, 1157, 1176, 1175
 333, 1157, 1158, 1177, 1176
 334, 1158, 1159, 1178, 1177
 335, 1159, 1160, 1179, 1178
 336, 1160, 1161, 1180, 1179
 337, 1161, 1162, 1181, 1180
 338, 1162, 1163, 1182, 1181
 339, 1163, 1164, 1183, 1182
 340, 1164, 1165, 1184, 1183
 341, 1165,  144,  145, 1184
 342,  900, 1166, 1185,  901
 343, 1166, 1167, 1186, 1185
 344, 1167, 1168, 1187, 1186
 345, 1168, 1169, 1188, 1187
 346, 1169, 1170, 1189, 1188
 347, 1170, 1171, 1190, 1189
 348, 1171, 1172, 1191, 1190
 349, 1172, 1173, 1192, 1191
 350, 1173, 1174, 1193, 1192
 351, 1174, 1175, 1194, 1193
 352, 1175, 1176, 1195, 1194
 353, 1176, 1177, 1196, 1195
 354, 1177, 1178, 1197, 1196
 355, 1178, 1179, 1198, 1197
 356, 1179, 1180, 1199, 1198
 357, 1180, 1181, 1200, 1199
 358, 1181, 1182, 1201, 1200
 359, 1182, 1183, 1202, 1201
 360, 1183, 1184, 1203, 1202
 361, 1184,  145,  146, 1203
 362,  901, 1185,  870,  864
 363, 1185, 1186,  871,  870
 364, 1186, 1187,  872,  871
 365, 1187, 1188,  873,  872
 366, 1188, 1189,  874,  873
 367, 1189, 1190,  875,  874
 368, 1190, 1191,  876,  875
 369, 1191, 1192,  877,  876
 370, 1192, 1193,  878,  877
 371, 1193, 1194,  879,  878
 372, 1194, 1195,  880,  879
 373, 1195, 1196,  881,  880
 374, 1196, 1197,  882,  881
 375, 1197, 1198,  883,  882
 376, 1198, 1199,  884,  883
 377, 1199, 1200,  885,  884
 378, 1200, 1201,  886,  885
 379, 1201, 1202,  887,  886
 380, 1202, 1203,  888,  887
 381, 1203,  146,  147,  888
 382,  159,  160, 1246, 1235
 383,  160,  161, 1247, 1246
 384,  161,  162, 1248, 1247
 385,  162,  163, 1249, 1248
 386,  163,  164, 1250, 1249
 387,  164,  165, 1251, 1250
 388,  165,  166, 1252, 1251
 389,  166,  167, 1253, 1252
 390,  167,  168, 1254, 1253
 391,  168,  169, 1255, 1254
 392,  169,  170, 1256, 1255
 393,  170,  171, 1257, 1256
 394,  171,  172,  669, 1257
 395, 1235, 1246, 1258, 1234
 396, 1246, 1247, 1259, 1258
 397, 1247, 1248, 1260, 1259
 398, 1248, 1249, 1261, 1260
 399, 1249, 1250, 1262, 1261
 400, 1250, 1251, 1263, 1262
 401, 1251, 1252, 1264, 1263
 402, 1252, 1253, 1265, 1264
 403, 1253, 1254, 1266, 1265
 404, 1254, 1255, 1267, 1266
 405, 1255, 1256, 1268, 1267
 406, 1256, 1257, 1269, 1268
 407, 1257,  669,  670, 1269
 408, 1234, 1258, 1270, 1233
 409, 1258, 1259, 1271, 1270
 410, 1259, 1260, 1272, 1271
 411, 1260, 1261, 1273, 1272
 412, 1261, 1262, 1274, 1273
 413, 1262, 1263, 1275, 1274
 414, 1263, 1264, 1276, 1275
 415, 1264, 1265, 1277, 1276
 416, 1265, 1266, 1278, 1277
 417, 1266, 1267, 1279, 1278
 418, 1267, 1268, 1280, 1279
 419, 1268, 1269, 1281, 1280
 420, 1269,  670,  671, 1281
 421, 1233, 1270, 1282, 1232
 422, 1270, 1271, 1283, 1282
 423, 1271, 1272, 1284, 1283
 424, 1272, 1273, 1285, 1284
 425, 1273, 1274, 1286, 1285
 426, 1274, 1275, 1287, 1286
 427, 1275, 1276, 1288, 1287
 428, 1276, 1277, 1289, 1288
 429, 1277, 1278, 1290, 1289
 430, 1278, 1279, 1291, 1290
 431, 1279, 1280, 1292, 1291
 432, 1280, 1281, 1293, 1292
 433, 1281,  671,  672, 1293
 434, 1232, 1282, 1294, 1231
 435, 1282, 1283, 1295, 1294
 436, 1283, 1284, 1296, 1295
 437, 1284, 1285, 1297, 1296
 438, 1285, 1286, 1298, 1297
 439, 1286, 1287, 1299, 1298
 440, 1287, 1288, 1300, 1299
 441, 1288, 1289, 1301, 1300
 442, 1289, 1290, 1302, 1301
 443, 1290, 1291, 1303, 1302
 444, 1291, 1292, 1304, 1303
 445, 1292, 1293, 1305, 1304
 446, 1293,  672,  673, 1305
 447, 1231, 1294, 1306, 1230
 448, 1294, 1295, 1307, 1306
 449, 1295, 1296, 1308, 1307
 450, 1296, 1297, 1309, 1308
 451, 1297, 1298, 1310, 1309
 452, 1298, 1299, 1311, 1310
 453, 1299, 1300, 1312, 1311
 454, 1300, 1301, 1313, 1312
 455, 1301, 1302, 1314, 1313
 456, 1302, 1303, 1315, 1314
 457, 1303, 1304, 1316, 1315
 458, 1304, 1305, 1317, 1316
 459, 1305,  673,  674, 1317
 460, 1230, 1306, 1318, 1229
 461, 1306, 1307, 1319, 1318
 462, 1307, 1308, 1320, 1319
 463, 1308, 1309, 1321, 1320
 464, 1309, 1310, 1322, 1321
 465, 1310, 1311, 1323, 1322
 466, 1311, 1312, 1324, 1323
 467, 1312, 1313, 1325, 1324
 468, 1313, 1314, 1326, 1325
 469, 1314, 1315, 1327, 1326
 470, 1315, 1316, 1328, 1327
 471, 1316, 1317, 1329, 1328
 472, 1317,  674,  675, 1329
 473, 1229, 1318, 1330, 1228
 474, 1318, 1319, 1331, 1330
 475, 1319, 1320, 1332, 1331
 476, 1320, 1321, 1333, 1332
 477, 1321, 1322, 1334, 1333
 478, 1322, 1323, 1335, 1334
 479, 1323, 1324, 1336, 1335
 480, 1324, 1325, 1337, 1336
 481, 1325, 1326, 1338, 1337
 482, 1326, 1327, 1339, 1338
 483, 1327, 1328, 1340, 1339
 484, 1328, 1329, 1341, 1340
 485, 1329,  675,  676, 1341
 486, 1228, 1330, 1342, 1227
 487, 1330, 1331, 1343, 1342
 488, 1331, 1332, 1344, 1343
 489, 1332, 1333, 1345, 1344
 490, 1333, 1334, 1346, 1345
 491, 1334, 1335, 1347, 1346
 492, 1335, 1336, 1348, 1347
 493, 1336, 1337, 1349, 1348
 494, 1337, 1338, 1350, 1349
 495, 1338, 1339, 1351, 1350
 496, 1339, 1340, 1352, 1351
 497, 1340, 1341, 1353, 1352
 498, 1341,  676,  677, 1353
 499, 1227, 1342, 1354, 1226
 500, 1342, 1343, 1355, 1354
 501, 1343, 1344, 1356, 1355
 502, 1344, 1345, 1357, 1356
 503, 1345, 1346, 1358, 1357
 504, 1346, 1347, 1359, 1358
 505, 1347, 1348, 1360, 1359
 506, 1348, 1349, 1361, 1360
 507, 1349, 1350, 1362, 1361
 508, 1350, 1351, 1363, 1362
 509, 1351, 1352, 1364, 1363
 510, 1352, 1353, 1365, 1364
 511, 1353,  677,  678, 1365
 512, 1226, 1354, 1366, 1225
 513, 1354, 1355, 1367, 1366
 514, 1355, 1356, 1368, 1367
 515, 1356, 1357, 1369, 1368
 516, 1357, 1358, 1370, 1369
 517, 1358, 1359, 1371, 1370
 518, 1359, 1360, 1372, 1371
 519, 1360, 1361, 1373, 1372
 520, 1361, 1362, 1374, 1373
 521, 1362, 1363, 1375, 1374
 522, 1363, 1364, 1376, 1375
 523, 1364, 1365, 1377, 1376
 524, 1365,  678,  679, 1377
 525, 1225, 1366, 1378, 1224
 526, 1366, 1367, 1379, 1378
 527, 1367, 1368, 1380, 1379
 528, 1368, 1369, 1381, 1380
 529, 1369, 1370, 1382, 1381
 530, 1370, 1371, 1383, 1382
 531, 1371, 1372, 1384, 1383
 532, 1372, 1373, 1385, 1384
 533, 1373, 1374, 1386, 1385
 534, 1374, 1375, 1387, 1386
 535, 1375, 1376, 1388, 1387
 536, 1376, 1377, 1389, 1388
 537, 1377,  679,  680, 1389
 538, 1224, 1378, 1390, 1223
 539, 1378, 1379, 1391, 1390
 540, 1379, 1380, 1392, 1391
 541, 1380, 1381, 1393, 1392
 542, 1381, 1382, 1394, 1393
 543, 1382, 1383, 1395, 1394
 544, 1383, 1384, 1396, 1395
 545, 1384, 1385, 1397, 1396
 546, 1385, 1386, 1398, 1397
 547, 1386, 1387, 1399, 1398
 548, 1387, 1388, 1400, 1399
 549, 1388, 1389, 1401, 1400
 550, 1389,  680,  681, 1401
 551, 1223, 1390, 1402, 1222
 552, 1390, 1391, 1403, 1402
 553, 1391, 1392, 1404, 1403
 554, 1392, 1393, 1405, 1404
 555, 1393, 1394, 1406, 1405
 556, 1394, 1395, 1407, 1406
 557, 1395, 1396, 1408, 1407
 558, 1396, 1397, 1409, 1408
 559, 1397, 1398, 1410, 1409
 560, 1398, 1399, 1411, 1410
 561, 1399, 1400, 1412, 1411
 562, 1400, 1401, 1413, 1412
 563, 1401,  681,  682, 1413
 564, 1222, 1402, 1414, 1221
 565, 1402, 1403, 1415, 1414
 566, 1403, 1404, 1416, 1415
 567, 1404, 1405, 1417, 1416
 568, 1405, 1406, 1418, 1417
 569, 1406, 1407, 1419, 1418
 570, 1407, 1408, 1420, 1419
 571, 1408, 1409, 1421, 1420
 572, 1409, 1410, 1422, 1421
 573, 1410, 1411, 1423, 1422
 574, 1411, 1412, 1424, 1423
 575, 1412, 1413, 1425, 1424
 576, 1413,  682,  683, 1425
 577, 1221, 1414, 1426, 1220
 578, 1414, 1415, 1427, 1426
 579, 1415, 1416, 1428, 1427
 580, 1416, 1417, 1429, 1428
 581, 1417, 1418, 1430, 1429
 582, 1418, 1419, 1431, 1430
 583, 1419, 1420, 1432, 1431
 584, 1420, 1421, 1433, 1432
 585, 1421, 1422, 1434, 1433
 586, 1422, 1423, 1435, 1434
 587, 1423, 1424, 1436, 1435
 588, 1424, 1425, 1437, 1436
 589, 1425,  683,  684, 1437
 590, 1220, 1426, 1438, 1219
 591, 1426, 1427, 1439, 1438
 592, 1427, 1428, 1440, 1439
 593, 1428, 1429, 1441, 1440
 594, 1429, 1430, 1442, 1441
 595, 1430, 1431, 1443, 1442
 596, 1431, 1432, 1444, 1443
 597, 1432, 1433, 1445, 1444
 598, 1433, 1434, 1446, 1445
 599, 1434, 1435, 1447, 1446
 600, 1435, 1436, 1448, 1447
 601, 1436, 1437, 1449, 1448
 602, 1437,  684,  685, 1449
 603, 1219, 1438, 1450, 1218
 604, 1438, 1439, 1451, 1450
 605, 1439, 1440, 1452, 1451
 606, 1440, 1441, 1453, 1452
 607, 1441, 1442, 1454, 1453
 608, 1442, 1443, 1455, 1454
 609, 1443, 1444, 1456, 1455
 610, 1444, 1445, 1457, 1456
 611, 1445, 1446, 1458, 1457
 612, 1446, 1447, 1459, 1458
 613, 1447, 1448, 1460, 1459
 614, 1448, 1449, 1461, 1460
 615, 1449,  685,  686, 1461
 616, 1218, 1450, 1462, 1217
 617, 1450, 1451, 1463, 1462
 618, 1451, 1452, 1464, 1463
 619, 1452, 1453, 1465, 1464
 620, 1453, 1454, 1466, 1465
 621, 1454, 1455, 1467, 1466
 622, 1455, 1456, 1468, 1467
 623, 1456, 1457, 1469, 1468
 624, 1457, 1458, 1470, 1469
 625, 1458, 1459, 1471, 1470
 626, 1459, 1460, 1472, 1471
 627, 1460, 1461, 1473, 1472
 628, 1461,  686,  687, 1473
 629, 1217, 1462, 1216, 1204
 630, 1462, 1463, 1215, 1216
 631, 1463, 1464, 1214, 1215
 632, 1464, 1465, 1213, 1214
 633, 1465, 1466, 1212, 1213
 634, 1466, 1467, 1211, 1212
 635, 1467, 1468, 1210, 1211
 636, 1468, 1469, 1209, 1210
 637, 1469, 1470, 1208, 1209
 638, 1470, 1471, 1207, 1208
 639, 1471, 1472, 1206, 1207
 640, 1472, 1473, 1205, 1206
 641, 1473,  687,  688, 1205
 642,  688,  689, 1474, 1205
 643,  689,  690, 1475, 1474
 644,  690,  691, 1476, 1475
 645,  691,  692, 1477, 1476
 646,  692,  693, 1478, 1477
 647,  693,  635,  694, 1478
 648, 1205, 1474, 1479, 1206
 649, 1474, 1475, 1480, 1479
 650, 1475, 1476, 1481, 1480
 651, 1476, 1477, 1482, 1481
 652, 1477, 1478, 1483, 1482
 653, 1478,  694,  695, 1483
 654, 1206, 1479, 1484, 1207
 655, 1479, 1480, 1485, 1484
 656, 1480, 1481, 1486, 1485
 657, 1481, 1482, 1487, 1486
 658, 1482, 1483, 1488, 1487
 659, 1483,  695,  696, 1488
 660, 1207, 1484, 1489, 1208
 661, 1484, 1485, 1490, 1489
 662, 1485, 1486, 1491, 1490
 663, 1486, 1487, 1492, 1491
 664, 1487, 1488, 1493, 1492
 665, 1488,  696,  697, 1493
 666, 1208, 1489, 1494, 1209
 667, 1489, 1490, 1495, 1494
 668, 1490, 1491, 1496, 1495
 669, 1491, 1492, 1497, 1496
 670, 1492, 1493, 1498, 1497
 671, 1493,  697,  698, 1498
 672, 1209, 1494, 1499, 1210
 673, 1494, 1495, 1500, 1499
 674, 1495, 1496, 1501, 1500
 675, 1496, 1497, 1502, 1501
 676, 1497, 1498, 1503, 1502
 677, 1498,  698,  699, 1503
 678, 1210, 1499, 1504, 1211
 679, 1499, 1500, 1505, 1504
 680, 1500, 1501, 1506, 1505
 681, 1501, 1502, 1507, 1506
 682, 1502, 1503, 1508, 1507
 683, 1503,  699,  700, 1508
 684, 1211, 1504, 1509, 1212
 685, 1504, 1505, 1510, 1509
 686, 1505, 1506, 1511, 1510
 687, 1506, 1507, 1512, 1511
 688, 1507, 1508, 1513, 1512
 689, 1508,  700,  701, 1513
 690, 1212, 1509, 1514, 1213
 691, 1509, 1510, 1515, 1514
 692, 1510, 1511, 1516, 1515
 693, 1511, 1512, 1517, 1516
 694, 1512, 1513, 1518, 1517
 695, 1513,  701,  702, 1518
 696, 1213, 1514, 1519, 1214
 697, 1514, 1515, 1520, 1519
 698, 1515, 1516, 1521, 1520
 699, 1516, 1517, 1522, 1521
 700, 1517, 1518, 1523, 1522
 701, 1518,  702,  703, 1523
 702, 1214, 1519, 1524, 1215
 703, 1519, 1520, 1525, 1524
 704, 1520, 1521, 1526, 1525
 705, 1521, 1522, 1527, 1526
 706, 1522, 1523, 1528, 1527
 707, 1523,  703,  704, 1528
 708, 1215, 1524, 1529, 1216
 709, 1524, 1525, 1530, 1529
 710, 1525, 1526, 1531, 1530
 711, 1526, 1527, 1532, 1531
 712, 1527, 1528, 1533, 1532
 713, 1528,  704,  705, 1533
 714, 1216, 1529, 1240, 1204
 715, 1529, 1530, 1239, 1240
 716, 1530, 1531, 1238, 1239
 717, 1531, 1532, 1237, 1238
 718, 1532, 1533, 1236, 1237
 719, 1533,  705,  706, 1236
 720,  706,  276,  275, 1236
 721, 1236,  275,  274, 1237
 722, 1237,  274,  273, 1238
 723, 1238,  273,  272, 1239
 724, 1239,  272,  271, 1240
 725, 1240,  271,  270, 1204
 726,  270,  269, 1245, 1204
 727,  269,  268, 1244, 1245
 728,  268,  267, 1243, 1244
 729,  267,  266, 1242, 1243
 730,  266,  265, 1241, 1242
 731,  265,    1,  658, 1241
 732,  658,  657, 1534, 1241
 733,  657,  656, 1535, 1534
 734,  656,  655, 1536, 1535
 735,  655,  654, 1537, 1536
 736,  654,  653, 1538, 1537
 737,  653,  652, 1539, 1538
 738,  652,  651, 1540, 1539
 739,  651,  650, 1541, 1540
 740,  650,  649, 1542, 1541
 741,  649,  648, 1543, 1542
 742,  648,  647, 1544, 1543
 743,  647,  646, 1545, 1544
 744,  646,  645, 1546, 1545
 745,  645,  644, 1547, 1546
 746,  644,  643, 1548, 1547
 747,  643,  642, 1549, 1548
 748,  642,  641, 1550, 1549
 749,  641,  640, 1551, 1550
 750,  640,  639, 1552, 1551
 751,  639,  153,  154, 1552
 752, 1241, 1534, 1553, 1242
 753, 1534, 1535, 1554, 1553
 754, 1535, 1536, 1555, 1554
 755, 1536, 1537, 1556, 1555
 756, 1537, 1538, 1557, 1556
 757, 1538, 1539, 1558, 1557
 758, 1539, 1540, 1559, 1558
 759, 1540, 1541, 1560, 1559
 760, 1541, 1542, 1561, 1560
 761, 1542, 1543, 1562, 1561
 762, 1543, 1544, 1563, 1562
 763, 1544, 1545, 1564, 1563
 764, 1545, 1546, 1565, 1564
 765, 1546, 1547, 1566, 1565
 766, 1547, 1548, 1567, 1566
 767, 1548, 1549, 1568, 1567
 768, 1549, 1550, 1569, 1568
 769, 1550, 1551, 1570, 1569
 770, 1551, 1552, 1571, 1570
 771, 1552,  154,  155, 1571
 772, 1242, 1553, 1572, 1243
 773, 1553, 1554, 1573, 1572
 774, 1554, 1555, 1574, 1573
 775, 1555, 1556, 1575, 1574
 776, 1556, 1557, 1576, 1575
 777, 1557, 1558, 1577, 1576
 778, 1558, 1559, 1578, 1577
 779, 1559, 1560, 1579, 1578
 780, 1560, 1561, 1580, 1579
 781, 1561, 1562, 1581, 1580
 782, 1562, 1563, 1582, 1581
 783, 1563, 1564, 1583, 1582
 784, 1564, 1565, 1584, 1583
 785, 1565, 1566, 1585, 1584
 786, 1566, 1567, 1586, 1585
 787, 1567, 1568, 1587, 1586
 788, 1568, 1569, 1588, 1587
 789, 1569, 1570, 1589, 1588
 790, 1570, 1571, 1590, 1589
 791, 1571,  155,  156, 1590
 792, 1243, 1572, 1591, 1244
 793, 1572, 1573, 1592, 1591
 794, 1573, 1574, 1593, 1592
 795, 1574, 1575, 1594, 1593
 796, 1575, 1576, 1595, 1594
 797, 1576, 1577, 1596, 1595
 798, 1577, 1578, 1597, 1596
 799, 1578, 1579, 1598, 1597
 800, 1579, 1580, 1599, 1598
 801, 1580, 1581, 1600, 1599
 802, 1581, 1582, 1601, 1600
 803, 1582, 1583, 1602, 1601
 804, 1583, 1584, 1603, 1602
 805, 1584, 1585, 1604, 1603
 806, 1585, 1586, 1605, 1604
 807, 1586, 1587, 1606, 1605
 808, 1587, 1588, 1607, 1606
 809, 1588, 1589, 1608, 1607
 810, 1589, 1590, 1609, 1608
 811, 1590,  156,  157, 1609
 812, 1244, 1591, 1610, 1245
 813, 1591, 1592, 1611, 1610
 814, 1592, 1593, 1612, 1611
 815, 1593, 1594, 1613, 1612
 816, 1594, 1595, 1614, 1613
 817, 1595, 1596, 1615, 1614
 818, 1596, 1597, 1616, 1615
 819, 1597, 1598, 1617, 1616
 820, 1598, 1599, 1618, 1617
 821, 1599, 1600, 1619, 1618
 822, 1600, 1601, 1620, 1619
 823, 1601, 1602, 1621, 1620
 824, 1602, 1603, 1622, 1621
 825, 1603, 1604, 1623, 1622
 826, 1604, 1605, 1624, 1623
 827, 1605, 1606, 1625, 1624
 828, 1606, 1607, 1626, 1625
 829, 1607, 1608, 1627, 1626
 830, 1608, 1609, 1628, 1627
 831, 1609,  157,  158, 1628
 832, 1245, 1610, 1217, 1204
 833, 1610, 1611, 1218, 1217
 834, 1611, 1612, 1219, 1218
 835, 1612, 1613, 1220, 1219
 836, 1613, 1614, 1221, 1220
 837, 1614, 1615, 1222, 1221
 838, 1615, 1616, 1223, 1222
 839, 1616, 1617, 1224, 1223
 840, 1617, 1618, 1225, 1224
 841, 1618, 1619, 1226, 1225
 842, 1619, 1620, 1227, 1226
 843, 1620, 1621, 1228, 1227
 844, 1621, 1622, 1229, 1228
 845, 1622, 1623, 1230, 1229
 846, 1623, 1624, 1231, 1230
 847, 1624, 1625, 1232, 1231
 848, 1625, 1626, 1233, 1232
 849, 1626, 1627, 1234, 1233
 850, 1627, 1628, 1235, 1234
 851, 1628,  158,  159, 1235
 852,  294,  707, 1629,  295
 853,  707,  708, 1630, 1629
 854,  708,  709, 1631, 1630
 855,  709,  710, 1632, 1631
 856,  710,  711, 1633, 1632
 857,  711,  712, 1634, 1633
 858,  712,  713, 1635, 1634
 859,  713,  714, 1636, 1635
 860,  714,  715, 1637, 1636
 861,  715,  716, 1638, 1637
 862,  716,  107,  108, 1638
 863,  295, 1629, 1639,  296
 864, 1629, 1630, 1640, 1639
 865, 1630, 1631, 1641, 1640
 866, 1631, 1632, 1642, 1641
 867, 1632, 1633, 1643, 1642
 868, 1633, 1634, 1644, 1643
 869, 1634, 1635, 1645, 1644
 870, 1635, 1636, 1646, 1645
 871, 1636, 1637, 1647, 1646
 872, 1637, 1638, 1648, 1647
 873, 1638,  108,  109, 1648
 874,  296, 1639, 1649,  297
 875, 1639, 1640, 1650, 1649
 876, 1640, 1641, 1651, 1650
 877, 1641, 1642, 1652, 1651
 878, 1642, 1643, 1653, 1652
 879, 1643, 1644, 1654, 1653
 880, 1644, 1645, 1655, 1654
 881, 1645, 1646, 1656, 1655
 882, 1646, 1647, 1657, 1656
 883, 1647, 1648, 1658, 1657
 884, 1648,  109,  110, 1658
 885,  297, 1649, 1659,  298
 886, 1649, 1650, 1660, 1659
 887, 1650, 1651, 1661, 1660
 888, 1651, 1652, 1662, 1661
 889, 1652, 1653, 1663, 1662
 890, 1653, 1654, 1664, 1663
 891, 1654, 1655, 1665, 1664
 892, 1655, 1656, 1666, 1665
 893, 1656, 1657, 1667, 1666
 894, 1657, 1658, 1668, 1667
 895, 1658,  110,  111, 1668
 896,  298, 1659, 1669,  299
 897, 1659, 1660, 1670, 1669
 898, 1660, 1661, 1671, 1670
 899, 1661, 1662, 1672, 1671
 900, 1662, 1663, 1673, 1672
 901, 1663, 1664, 1674, 1673
 902, 1664, 1665, 1675, 1674
 903, 1665, 1666, 1676, 1675
 904, 1666, 1667, 1677, 1676
 905, 1667, 1668, 1678, 1677
 906, 1668,  111,  112, 1678
 907,  299, 1669,  659,  300
 908, 1669, 1670,  660,  659
 909, 1670, 1671,  661,  660
 910, 1671, 1672,  662,  661
 911, 1672, 1673,  663,  662
 912, 1673, 1674,  664,  663
 913, 1674, 1675,  665,  664
 914, 1675, 1676,  666,  665
 915, 1676, 1677,  667,  666
 916, 1677, 1678,  668,  667
 917, 1678,  112,  113,  668
 918,  717,  718, 1715, 1689
 919,  718,  719, 1716, 1715
 920,  719,  720, 1717, 1716
 921,  720,  721, 1718, 1717
 922,  721,  722, 1719, 1718
 923,  722,  723, 1720, 1719
 924,  723,  635,  693, 1720
 925, 1689, 1715, 1721, 1688
 926, 1715, 1716, 1722, 1721
 927, 1716, 1717, 1723, 1722
 928, 1717, 1718, 1724, 1723
 929, 1718, 1719, 1725, 1724
 930, 1719, 1720, 1726, 1725
 931, 1720,  693,  692, 1726
 932, 1688, 1721, 1727, 1687
 933, 1721, 1722, 1728, 1727
 934, 1722, 1723, 1729, 1728
 935, 1723, 1724, 1730, 1729
 936, 1724, 1725, 1731, 1730
 937, 1725, 1726, 1732, 1731
 938, 1726,  692,  691, 1732
 939, 1687, 1727, 1733, 1686
 940, 1727, 1728, 1734, 1733
 941, 1728, 1729, 1735, 1734
 942, 1729, 1730, 1736, 1735
 943, 1730, 1731, 1737, 1736
 944, 1731, 1732, 1738, 1737
 945, 1732,  691,  690, 1738
 946, 1686, 1733, 1685, 1679
 947, 1733, 1734, 1684, 1685
 948, 1734, 1735, 1683, 1684
 949, 1735, 1736, 1682, 1683
 950, 1736, 1737, 1681, 1682
 951, 1737, 1738, 1680, 1681
 952, 1738,  690,  689, 1680
 953,  689,  688, 1739, 1680
 954,  688,  687, 1740, 1739
 955,  687,  686, 1741, 1740
 956,  686,  685, 1742, 1741
 957,  685,  684, 1743, 1742
 958,  684,  683, 1744, 1743
 959,  683,  682, 1745, 1744
 960,  682,  681, 1746, 1745
 961,  681,  680, 1747, 1746
 962,  680,  679, 1748, 1747
 963,  679,  678, 1749, 1748
 964,  678,  677, 1750, 1749
 965,  677,  676, 1751, 1750
 966,  676,  675, 1752, 1751
 967,  675,  674, 1753, 1752
 968,  674,  673, 1754, 1753
 969,  673,  672, 1755, 1754
 970,  672,  671, 1756, 1755
 971,  671,  670, 1757, 1756
 972,  670,  669, 1758, 1757
 973,  669,  172,  173, 1758
 974, 1680, 1739, 1759, 1681
 975, 1739, 1740, 1760, 1759
 976, 1740, 1741, 1761, 1760
 977, 1741, 1742, 1762, 1761
 978, 1742, 1743, 1763, 1762
 979, 1743, 1744, 1764, 1763
 980, 1744, 1745, 1765, 1764
 981, 1745, 1746, 1766, 1765
 982, 1746, 1747, 1767, 1766
 983, 1747, 1748, 1768, 1767
 984, 1748, 1749, 1769, 1768
 985, 1749, 1750, 1770, 1769
 986, 1750, 1751, 1771, 1770
 987, 1751, 1752, 1772, 1771
 988, 1752, 1753, 1773, 1772
 989, 1753, 1754, 1774, 1773
 990, 1754, 1755, 1775, 1774
 991, 1755, 1756, 1776, 1775
 992, 1756, 1757, 1777, 1776
 993, 1757, 1758, 1778, 1777
 994, 1758,  173,  174, 1778
 995, 1681, 1759, 1779, 1682
 996, 1759, 1760, 1780, 1779
 997, 1760, 1761, 1781, 1780
 998, 1761, 1762, 1782, 1781
 999, 1762, 1763, 1783, 1782
1000, 1763, 1764, 1784, 1783
1001, 1764, 1765, 1785, 1784
1002, 1765, 1766, 1786, 1785
1003, 1766, 1767, 1787, 1786
1004, 1767, 1768, 1788, 1787
1005, 1768, 1769, 1789, 1788
1006, 1769, 1770, 1790, 1789
1007, 1770, 1771, 1791, 1790
1008, 1771, 1772, 1792, 1791
1009, 1772, 1773, 1793, 1792
1010, 1773, 1774, 1794, 1793
1011, 1774, 1775, 1795, 1794
1012, 1775, 1776, 1796, 1795
1013, 1776, 1777, 1797, 1796
1014, 1777, 1778, 1798, 1797
1015, 1778,  174,  175, 1798
1016, 1682, 1779, 1799, 1683
1017, 1779, 1780, 1800, 1799
1018, 1780, 1781, 1801, 1800
1019, 1781, 1782, 1802, 1801
1020, 1782, 1783, 1803, 1802
1021, 1783, 1784, 1804, 1803
1022, 1784, 1785, 1805, 1804
1023, 1785, 1786, 1806, 1805
1024, 1786, 1787, 1807, 1806
1025, 1787, 1788, 1808, 1807
1026, 1788, 1789, 1809, 1808
1027, 1789, 1790, 1810, 1809
1028, 1790, 1791, 1811, 1810
1029, 1791, 1792, 1812, 1811
1030, 1792, 1793, 1813, 1812
1031, 1793, 1794, 1814, 1813
1032, 1794, 1795, 1815, 1814
1033, 1795, 1796, 1816, 1815
1034, 1796, 1797, 1817, 1816
1035, 1797, 1798, 1818, 1817
1036, 1798,  175,  176, 1818
1037, 1683, 1799, 1819, 1684
1038, 1799, 1800, 1820, 1819
1039, 1800, 1801, 1821, 1820
1040, 1801, 1802, 1822, 1821
1041, 1802, 1803, 1823, 1822
1042, 1803, 1804, 1824, 1823
1043, 1804, 1805, 1825, 1824
1044, 1805, 1806, 1826, 1825
1045, 1806, 1807, 1827, 1826
1046, 1807, 1808, 1828, 1827
1047, 1808, 1809, 1829, 1828
1048, 1809, 1810, 1830, 1829
1049, 1810, 1811, 1831, 1830
1050, 1811, 1812, 1832, 1831
1051, 1812, 1813, 1833, 1832
1052, 1813, 1814, 1834, 1833
1053, 1814, 1815, 1835, 1834
1054, 1815, 1816, 1836, 1835
1055, 1816, 1817, 1837, 1836
1056, 1817, 1818, 1838, 1837
1057, 1818,  176,  177, 1838
1058, 1684, 1819, 1839, 1685
1059, 1819, 1820, 1840, 1839
1060, 1820, 1821, 1841, 1840
1061, 1821, 1822, 1842, 1841
1062, 1822, 1823, 1843, 1842
1063, 1823, 1824, 1844, 1843
1064, 1824, 1825, 1845, 1844
1065, 1825, 1826, 1846, 1845
1066, 1826, 1827, 1847, 1846
1067, 1827, 1828, 1848, 1847
1068, 1828, 1829, 1849, 1848
1069, 1829, 1830, 1850, 1849
1070, 1830, 1831, 1851, 1850
1071, 1831, 1832, 1852, 1851
1072, 1832, 1833, 1853, 1852
1073, 1833, 1834, 1854, 1853
1074, 1834, 1835, 1855, 1854
1075, 1835, 1836, 1856, 1855
1076, 1836, 1837, 1857, 1856
1077, 1837, 1838, 1858, 1857
1078, 1838,  177,  178, 1858
1079, 1685, 1839, 1709, 1679
1080, 1839, 1840, 1708, 1709
1081, 1840, 1841, 1707, 1708
1082, 1841, 1842, 1706, 1707
1083, 1842, 1843, 1705, 1706
1084, 1843, 1844, 1704, 1705
1085, 1844, 1845, 1703, 1704
1086, 1845, 1846, 1702, 1703
1087, 1846, 1847, 1701, 1702
1088, 1847, 1848, 1700, 1701
1089, 1848, 1849, 1699, 1700
1090, 1849, 1850, 1698, 1699
1091, 1850, 1851, 1697, 1698
1092, 1851, 1852, 1696, 1697
1093, 1852, 1853, 1695, 1696
1094, 1853, 1854, 1694, 1695
1095, 1854, 1855, 1693, 1694
1096, 1855, 1856, 1692, 1693
1097, 1856, 1857, 1691, 1692
1098, 1857, 1858, 1690, 1691
1099, 1858,  178,  179, 1690
1100,  179,  180, 1859, 1690
1101,  180,  181, 1860, 1859
1102,  181,  182, 1861, 1860
1103,  182,  183, 1862, 1861
1104,  183,  184, 1863, 1862
1105,  184,  185,  724, 1863
1106, 1690, 1859, 1864, 1691
1107, 1859, 1860, 1865, 1864
1108, 1860, 1861, 1866, 1865
1109, 1861, 1862, 1867, 1866
1110, 1862, 1863, 1868, 1867
1111, 1863,  724,  725, 1868
1112, 1691, 1864, 1869, 1692
1113, 1864, 1865, 1870, 1869
1114, 1865, 1866, 1871, 1870
1115, 1866, 1867, 1872, 1871
1116, 1867, 1868, 1873, 1872
1117, 1868,  725,  726, 1873
1118, 1692, 1869, 1874, 1693
1119, 1869, 1870, 1875, 1874
1120, 1870, 1871, 1876, 1875
1121, 1871, 1872, 1877, 1876
1122, 1872, 1873, 1878, 1877
1123, 1873,  726,  727, 1878
1124, 1693, 1874, 1879, 1694
1125, 1874, 1875, 1880, 1879
1126, 1875, 1876, 1881, 1880
1127, 1876, 1877, 1882, 1881
1128, 1877, 1878, 1883, 1882
1129, 1878,  727,  728, 1883
1130, 1694, 1879, 1884, 1695
1131, 1879, 1880, 1885, 1884
1132, 1880, 1881, 1886, 1885
1133, 1881, 1882, 1887, 1886
1134, 1882, 1883, 1888, 1887
1135, 1883,  728,  729, 1888
1136, 1695, 1884, 1889, 1696
1137, 1884, 1885, 1890, 1889
1138, 1885, 1886, 1891, 1890
1139, 1886, 1887, 1892, 1891
1140, 1887, 1888, 1893, 1892
1141, 1888,  729,  730, 1893
1142, 1696, 1889, 1894, 1697
1143, 1889, 1890, 1895, 1894
1144, 1890, 1891, 1896, 1895
1145, 1891, 1892, 1897, 1896
1146, 1892, 1893, 1898, 1897
1147, 1893,  730,  731, 1898
1148, 1697, 1894, 1899, 1698
1149, 1894, 1895, 1900, 1899
1150, 1895, 1896, 1901, 1900
1151, 1896, 1897, 1902, 1901
1152, 1897, 1898, 1903, 1902
1153, 1898,  731,  732, 1903
1154, 1698, 1899, 1904, 1699
1155, 1899, 1900, 1905, 1904
1156, 1900, 1901, 1906, 1905
1157, 1901, 1902, 1907, 1906
1158, 1902, 1903, 1908, 1907
1159, 1903,  732,  733, 1908
1160, 1699, 1904, 1909, 1700
1161, 1904, 1905, 1910, 1909
1162, 1905, 1906, 1911, 1910
1163, 1906, 1907, 1912, 1911
1164, 1907, 1908, 1913, 1912
1165, 1908,  733,  734, 1913
1166, 1700, 1909, 1914, 1701
1167, 1909, 1910, 1915, 1914
1168, 1910, 1911, 1916, 1915
1169, 1911, 1912, 1917, 1916
1170, 1912, 1913, 1918, 1917
1171, 1913,  734,  735, 1918
1172, 1701, 1914, 1919, 1702
1173, 1914, 1915, 1920, 1919
1174, 1915, 1916, 1921, 1920
1175, 1916, 1917, 1922, 1921
1176, 1917, 1918, 1923, 1922
1177, 1918,  735,  736, 1923
1178, 1702, 1919, 1924, 1703
1179, 1919, 1920, 1925, 1924
1180, 1920, 1921, 1926, 1925
1181, 1921, 1922, 1927, 1926
1182, 1922, 1923, 1928, 1927
1183, 1923,  736,  737, 1928
1184, 1703, 1924, 1929, 1704
1185, 1924, 1925, 1930, 1929
1186, 1925, 1926, 1931, 1930
1187, 1926, 1927, 1932, 1931
1188, 1927, 1928, 1933, 1932
1189, 1928,  737,  738, 1933
1190, 1704, 1929, 1934, 1705
1191, 1929, 1930, 1935, 1934
1192, 1930, 1931, 1936, 1935
1193, 1931, 1932, 1937, 1936
1194, 1932, 1933, 1938, 1937
1195, 1933,  738,  739, 1938
1196, 1705, 1934, 1939, 1706
1197, 1934, 1935, 1940, 1939
1198, 1935, 1936, 1941, 1940
1199, 1936, 1937, 1942, 1941
1200, 1937, 1938, 1943, 1942
1201, 1938,  739,  740, 1943
1202, 1706, 1939, 1944, 1707
1203, 1939, 1940, 1945, 1944
1204, 1940, 1941, 1946, 1945
1205, 1941, 1942, 1947, 1946
1206, 1942, 1943, 1948, 1947
1207, 1943,  740,  741, 1948
1208, 1707, 1944, 1949, 1708
1209, 1944, 1945, 1950, 1949
1210, 1945, 1946, 1951, 1950
1211, 1946, 1947, 1952, 1951
1212, 1947, 1948, 1953, 1952
1213, 1948,  741,  742, 1953
1214, 1708, 1949, 1954, 1709
1215, 1949, 1950, 1955, 1954
1216, 1950, 1951, 1956, 1955
1217, 1951, 1952, 1957, 1956
1218, 1952, 1953, 1958, 1957
1219, 1953,  742,  743, 1958
1220, 1709, 1954, 1714, 1679
1221, 1954, 1955, 1713, 1714
1222, 1955, 1956, 1712, 1713
1223, 1956, 1957, 1711, 1712
1224, 1957, 1958, 1710, 1711
1225, 1958,  743,  744, 1710
1226,  744,    3,  354, 1710
1227, 1710,  354,  353, 1711
1228, 1711,  353,  352, 1712
1229, 1712,  352,  351, 1713
1230, 1713,  351,  350, 1714
1231, 1714,  350,  349, 1679
1232,  349,  348, 1686, 1679
1233,  348,  347, 1687, 1686
1234,  347,  346, 1688, 1687
1235,  346,  345, 1689, 1688
1236,  345,  344,  717, 1689
1237,  706,  705, 1987, 1979
1238,  705,  704, 1988, 1987
1239,  704,  703, 1989, 1988
1240,  703,  702, 1990, 1989
1241,  702,  701, 1991, 1990
1242,  701,  700, 1992, 1991
1243,  700,  699, 1993, 1992
1244,  699,  698, 1994, 1993
1245,  698,  697, 1995, 1994
1246,  697,  696, 1996, 1995
1247,  696,  695, 1997, 1996
1248,  695,  694, 1998, 1997
1249,  694,  635,  745, 1998
1250, 1979, 1987, 1999, 1978
1251, 1987, 1988, 2000, 1999
1252, 1988, 1989, 2001, 2000
1253, 1989, 1990, 2002, 2001
1254, 1990, 1991, 2003, 2002
1255, 1991, 1992, 2004, 2003
1256, 1992, 1993, 2005, 2004
1257, 1993, 1994, 2006, 2005
1258, 1994, 1995, 2007, 2006
1259, 1995, 1996, 2008, 2007
1260, 1996, 1997, 2009, 2008
1261, 1997, 1998, 2010, 2009
1262, 1998,  745,  746, 2010
1263, 1978, 1999, 2011, 1977
1264, 1999, 2000, 2012, 2011
1265, 2000, 2001, 2013, 2012
1266, 2001, 2002, 2014, 2013
1267, 2002, 2003, 2015, 2014
1268, 2003, 2004, 2016, 2015
1269, 2004, 2005, 2017, 2016
1270, 2005, 2006, 2018, 2017
1271, 2006, 2007, 2019, 2018
1272, 2007, 2008, 2020, 2019
1273, 2008, 2009, 2021, 2020
1274, 2009, 2010, 2022, 2021
1275, 2010,  746,  747, 2022
1276, 1977, 2011, 2023, 1976
1277, 2011, 2012, 2024, 2023
1278, 2012, 2013, 2025, 2024
1279, 2013, 2014, 2026, 2025
1280, 2014, 2015, 2027, 2026
1281, 2015, 2016, 2028, 2027
1282, 2016, 2017, 2029, 2028
1283, 2017, 2018, 2030, 2029
1284, 2018, 2019, 2031, 2030
1285, 2019, 2020, 2032, 2031
1286, 2020, 2021, 2033, 2032
1287, 2021, 2022, 2034, 2033
1288, 2022,  747,  748, 2034
1289, 1976, 2023, 2035, 1975
1290, 2023, 2024, 2036, 2035
1291, 2024, 2025, 2037, 2036
1292, 2025, 2026, 2038, 2037
1293, 2026, 2027, 2039, 2038
1294, 2027, 2028, 2040, 2039
1295, 2028, 2029, 2041, 2040
1296, 2029, 2030, 2042, 2041
1297, 2030, 2031, 2043, 2042
1298, 2031, 2032, 2044, 2043
1299, 2032, 2033, 2045, 2044
1300, 2033, 2034, 2046, 2045
1301, 2034,  748,  749, 2046
1302, 1975, 2035, 2047, 1974
1303, 2035, 2036, 2048, 2047
1304, 2036, 2037, 2049, 2048
1305, 2037, 2038, 2050, 2049
1306, 2038, 2039, 2051, 2050
1307, 2039, 2040, 2052, 2051
1308, 2040, 2041, 2053, 2052
1309, 2041, 2042, 2054, 2053
1310, 2042, 2043, 2055, 2054
1311, 2043, 2044, 2056, 2055
1312, 2044, 2045, 2057, 2056
1313, 2045, 2046, 2058, 2057
1314, 2046,  749,  750, 2058
1315, 1974, 2047, 2059, 1973
1316, 2047, 2048, 2060, 2059
1317, 2048, 2049, 2061, 2060
1318, 2049, 2050, 2062, 2061
1319, 2050, 2051, 2063, 2062
1320, 2051, 2052, 2064, 2063
1321, 2052, 2053, 2065, 2064
1322, 2053, 2054, 2066, 2065
1323, 2054, 2055, 2067, 2066
1324, 2055, 2056, 2068, 2067
1325, 2056, 2057, 2069, 2068
1326, 2057, 2058, 2070, 2069
1327, 2058,  750,  751, 2070
1328, 1973, 2059, 2071, 1972
1329, 2059, 2060, 2072, 2071
1330, 2060, 2061, 2073, 2072
1331, 2061, 2062, 2074, 2073
1332, 2062, 2063, 2075, 2074
1333, 2063, 2064, 2076, 2075
1334, 2064, 2065, 2077, 2076
1335, 2065, 2066, 2078, 2077
1336, 2066, 2067, 2079, 2078
1337, 2067, 2068, 2080, 2079
1338, 2068, 2069, 2081, 2080
1339, 2069, 2070, 2082, 2081
1340, 2070,  751,  752, 2082
1341, 1972, 2071, 1971, 1959
1342, 2071, 2072, 1970, 1971
1343, 2072, 2073, 1969, 1970
1344, 2073, 2074, 1968, 1969
1345, 2074, 2075, 1967, 1968
1346, 2075, 2076, 1966, 1967
1347, 2076, 2077, 1965, 1966
1348, 2077, 2078, 1964, 1965
1349, 2078, 2079, 1963, 1964
1350, 2079, 2080, 1962, 1963
1351, 2080, 2081, 1961, 1962
1352, 2081, 2082, 1960, 1961
1353, 2082,  752,  753, 1960
1354,  753,  754, 2083, 1960
1355,  754,  755, 2084, 2083
1356,  755,  756, 2085, 2084
1357,  756,  757, 2086, 2085
1358,  757,  758, 2087, 2086
1359,  758,  759, 2088, 2087
1360,  759,  636,  760, 2088
1361, 1960, 2083, 2089, 1961
1362, 2083, 2084, 2090, 2089
1363, 2084, 2085, 2091, 2090
1364, 2085, 2086, 2092, 2091
1365, 2086, 2087, 2093, 2092
1366, 2087, 2088, 2094, 2093
1367, 2088,  760,  761, 2094
1368, 1961, 2089, 2095, 1962
1369, 2089, 2090, 2096, 2095
1370, 2090, 2091, 2097, 2096
1371, 2091, 2092, 2098, 2097
1372, 2092, 2093, 2099, 2098
1373, 2093, 2094, 2100, 2099
1374, 2094,  761,  762, 2100
1375, 1962, 2095, 2101, 1963
1376, 2095, 2096, 2102, 2101
1377, 2096, 2097, 2103, 2102
1378, 2097, 2098, 2104, 2103
1379, 2098, 2099, 2105, 2104
1380, 2099, 2100, 2106, 2105
1381, 2100,  762,  763, 2106
1382, 1963, 2101, 2107, 1964
1383, 2101, 2102, 2108, 2107
1384, 2102, 2103, 2109, 2108
1385, 2103, 2104, 2110, 2109
1386, 2104, 2105, 2111, 2110
1387, 2105, 2106, 2112, 2111
1388, 2106,  763,  764, 2112
1389, 1964, 2107, 2113, 1965
1390, 2107, 2108, 2114, 2113
1391, 2108, 2109, 2115, 2114
1392, 2109, 2110, 2116, 2115
1393, 2110, 2111, 2117, 2116
1394, 2111, 2112, 2118, 2117
1395, 2112,  764,  765, 2118
1396, 1965, 2113, 2119, 1966
1397, 2113, 2114, 2120, 2119
1398, 2114, 2115, 2121, 2120
1399, 2115, 2116, 2122, 2121
1400, 2116, 2117, 2123, 2122
1401, 2117, 2118, 2124, 2123
1402, 2118,  765,  766, 2124
1403, 1966, 2119, 2125, 1967
1404, 2119, 2120, 2126, 2125
1405, 2120, 2121, 2127, 2126
1406, 2121, 2122, 2128, 2127
1407, 2122, 2123, 2129, 2128
1408, 2123, 2124, 2130, 2129
1409, 2124,  766,  767, 2130
1410, 1967, 2125, 2131, 1968
1411, 2125, 2126, 2132, 2131
1412, 2126, 2127, 2133, 2132
1413, 2127, 2128, 2134, 2133
1414, 2128, 2129, 2135, 2134
1415, 2129, 2130, 2136, 2135
1416, 2130,  767,  768, 2136
1417, 1968, 2131, 2137, 1969
1418, 2131, 2132, 2138, 2137
1419, 2132, 2133, 2139, 2138
1420, 2133, 2134, 2140, 2139
1421, 2134, 2135, 2141, 2140
1422, 2135, 2136, 2142, 2141
1423, 2136,  768,  769, 2142
1424, 1969, 2137, 2143, 1970
1425, 2137, 2138, 2144, 2143
1426, 2138, 2139, 2145, 2144
1427, 2139, 2140, 2146, 2145
1428, 2140, 2141, 2147, 2146
1429, 2141, 2142, 2148, 2147
1430, 2142,  769,  770, 2148
1431, 1970, 2143, 2149, 1971
1432, 2143, 2144, 2150, 2149
1433, 2144, 2145, 2151, 2150
1434, 2145, 2146, 2152, 2151
1435, 2146, 2147, 2153, 2152
1436, 2147, 2148, 2154, 2153
1437, 2148,  770,  771, 2154
1438, 1971, 2149, 1985, 1959
1439, 2149, 2150, 1984, 1985
1440, 2150, 2151, 1983, 1984
1441, 2151, 2152, 1982, 1983
1442, 2152, 2153, 1981, 1982
1443, 2153, 2154, 1980, 1981
1444, 2154,  771,  772, 1980
1445,  772,  773, 2155, 1980
1446,  773,  637,  774, 2155
1447, 1980, 2155, 2156, 1981
1448, 2155,  774,  775, 2156
1449, 1981, 2156, 2157, 1982
1450, 2156,  775,  776, 2157
1451, 1982, 2157, 2158, 1983
1452, 2157,  776,  777, 2158
1453, 1983, 2158, 2159, 1984
1454, 2158,  777,  778, 2159
1455, 1984, 2159, 2160, 1985
1456, 2159,  778,  779, 2160
1457, 1985, 2160, 1986, 1959
1458, 2160,  779,  780, 1986
1459,  780,  287,  286, 1986
1460, 1986,  286,  285, 1959
1461,  285,  284, 1972, 1959
1462,  284,  283, 1973, 1972
1463,  283,  282, 1974, 1973
1464,  282,  281, 1975, 1974
1465,  281,  280, 1976, 1975
1466,  280,  279, 1977, 1976
1467,  279,  278, 1978, 1977
1468,  278,  277, 1979, 1978
1469,  277,  276,  706, 1979
1470,   60,   61, 2206,  803
1471,   61,   62, 2207, 2206
1472,   62,   63, 2208, 2207
1473,   63,   64, 2209, 2208
1474,   64,   65, 2210, 2209
1475,   65,   66, 2162, 2210
1476,  803, 2206, 2211,  802
1477, 2206, 2207, 2212, 2211
1478, 2207, 2208, 2213, 2212
1479, 2208, 2209, 2214, 2213
1480, 2209, 2210, 2215, 2214
1481, 2210, 2162, 2163, 2215
1482,  802, 2211, 2216,  801
1483, 2211, 2212, 2217, 2216
1484, 2212, 2213, 2218, 2217
1485, 2213, 2214, 2219, 2218
1486, 2214, 2215, 2220, 2219
1487, 2215, 2163, 2164, 2220
1488,  801, 2216, 2221,  800
1489, 2216, 2217, 2222, 2221
1490, 2217, 2218, 2223, 2222
1491, 2218, 2219, 2224, 2223
1492, 2219, 2220, 2225, 2224
1493, 2220, 2164, 2165, 2225
1494,  800, 2221, 2226,  799
1495, 2221, 2222, 2227, 2226
1496, 2222, 2223, 2228, 2227
1497, 2223, 2224, 2229, 2228
1498, 2224, 2225, 2230, 2229
1499, 2225, 2165, 2166, 2230
1500,  799, 2226, 2231,  798
1501, 2226, 2227, 2232, 2231
1502, 2227, 2228, 2233, 2232
1503, 2228, 2229, 2234, 2233
1504, 2229, 2230, 2235, 2234
1505, 2230, 2166, 2167, 2235
1506,  798, 2231, 2236,  797
1507, 2231, 2232, 2237, 2236
1508, 2232, 2233, 2238, 2237
1509, 2233, 2234, 2239, 2238
1510, 2234, 2235, 2240, 2239
1511, 2235, 2167, 2168, 2240
1512,  797, 2236, 2241,  796
1513, 2236, 2237, 2242, 2241
1514, 2237, 2238, 2243, 2242
1515, 2238, 2239, 2244, 2243
1516, 2239, 2240, 2245, 2244
1517, 2240, 2168, 2169, 2245
1518,  796, 2241, 2246,  795
1519, 2241, 2242, 2247, 2246
1520, 2242, 2243, 2248, 2247
1521, 2243, 2244, 2249, 2248
1522, 2244, 2245, 2250, 2249
1523, 2245, 2169, 2170, 2250
1524,  795, 2246, 2251,  794
1525, 2246, 2247, 2252, 2251
1526, 2247, 2248, 2253, 2252
1527, 2248, 2249, 2254, 2253
1528, 2249, 2250, 2255, 2254
1529, 2250, 2170, 2171, 2255
1530,  794, 2251, 2256,  793
1531, 2251, 2252, 2257, 2256
1532, 2252, 2253, 2258, 2257
1533, 2253, 2254, 2259, 2258
1534, 2254, 2255, 2260, 2259
1535, 2255, 2171, 2172, 2260
1536,  793, 2256, 2261,  792
1537, 2256, 2257, 2262, 2261
1538, 2257, 2258, 2263, 2262
1539, 2258, 2259, 2264, 2263
1540, 2259, 2260, 2265, 2264
1541, 2260, 2172, 2173, 2265
1542,  792, 2261, 2266,  791
1543, 2261, 2262, 2267, 2266
1544, 2262, 2263, 2268, 2267
1545, 2263, 2264, 2269, 2268
1546, 2264, 2265, 2270, 2269
1547, 2265, 2173, 2174, 2270
1548,  791, 2266, 2271,  790
1549, 2266, 2267, 2272, 2271
1550, 2267, 2268, 2273, 2272
1551, 2268, 2269, 2274, 2273
1552, 2269, 2270, 2275, 2274
1553, 2270, 2174, 2175, 2275
1554,  790, 2271, 2276,  789
1555, 2271, 2272, 2277, 2276
1556, 2272, 2273, 2278, 2277
1557, 2273, 2274, 2279, 2278
1558, 2274, 2275, 2280, 2279
1559, 2275, 2175, 2176, 2280
1560,  789, 2276, 2281,  788
1561, 2276, 2277, 2282, 2281
1562, 2277, 2278, 2283, 2282
1563, 2278, 2279, 2284, 2283
1564, 2279, 2280, 2285, 2284
1565, 2280, 2176, 2177, 2285
1566,  788, 2281, 2286,  787
1567, 2281, 2282, 2287, 2286
1568, 2282, 2283, 2288, 2287
1569, 2283, 2284, 2289, 2288
1570, 2284, 2285, 2290, 2289
1571, 2285, 2177, 2178, 2290
1572,  787, 2286, 2291,  786
1573, 2286, 2287, 2292, 2291
1574, 2287, 2288, 2293, 2292
1575, 2288, 2289, 2294, 2293
1576, 2289, 2290, 2295, 2294
1577, 2290, 2178, 2179, 2295
1578,  786, 2291, 2296,  785
1579, 2291, 2292, 2297, 2296
1580, 2292, 2293, 2298, 2297
1581, 2293, 2294, 2299, 2298
1582, 2294, 2295, 2300, 2299
1583, 2295, 2179, 2180, 2300
1584,  785, 2296, 2301,  784
1585, 2296, 2297, 2302, 2301
1586, 2297, 2298, 2303, 2302
1587, 2298, 2299, 2304, 2303
1588, 2299, 2300, 2305, 2304
1589, 2300, 2180, 2181, 2305
1590,  784, 2301, 2306,  783
1591, 2301, 2302, 2307, 2306
1592, 2302, 2303, 2308, 2307
1593, 2303, 2304, 2309, 2308
1594, 2304, 2305, 2310, 2309
1595, 2305, 2181, 2182, 2310
1596,  783, 2306, 2311,  782
1597, 2306, 2307, 2312, 2311
1598, 2307, 2308, 2313, 2312
1599, 2308, 2309, 2314, 2313
1600, 2309, 2310, 2315, 2314
1601, 2310, 2182, 2183, 2315
1602,  782, 2311, 2316,  781
1603, 2311, 2312, 2317, 2316
1604, 2312, 2313, 2318, 2317
1605, 2313, 2314, 2319, 2318
1606, 2314, 2315, 2320, 2319
1607, 2315, 2183, 2184, 2320
1608,  781, 2316, 2321,  637
1609, 2316, 2317, 2322, 2321
1610, 2317, 2318, 2323, 2322
1611, 2318, 2319, 2324, 2323
1612, 2319, 2320, 2325, 2324
1613, 2320, 2184, 2185, 2325
1614,  637, 2321, 2326,  774
1615, 2321, 2322, 2327, 2326
1616, 2322, 2323, 2328, 2327
1617, 2323, 2324, 2329, 2328
1618, 2324, 2325, 2330, 2329
1619, 2325, 2185, 2186, 2330
1620,  774, 2326, 2331,  775
1621, 2326, 2327, 2332, 2331
1622, 2327, 2328, 2333, 2332
1623, 2328, 2329, 2334, 2333
1624, 2329, 2330, 2335, 2334
1625, 2330, 2186, 2187, 2335
1626,  775, 2331, 2336,  776
1627, 2331, 2332, 2337, 2336
1628, 2332, 2333, 2338, 2337
1629, 2333, 2334, 2339, 2338
1630, 2334, 2335, 2340, 2339
1631, 2335, 2187, 2188, 2340
1632,  776, 2336, 2341,  777
1633, 2336, 2337, 2342, 2341
1634, 2337, 2338, 2343, 2342
1635, 2338, 2339, 2344, 2343
1636, 2339, 2340, 2345, 2344
1637, 2340, 2188, 2189, 2345
1638,  777, 2341, 2346,  778
1639, 2341, 2342, 2347, 2346
1640, 2342, 2343, 2348, 2347
1641, 2343, 2344, 2349, 2348
1642, 2344, 2345, 2350, 2349
1643, 2345, 2189, 2190, 2350
1644,  778, 2346, 2351,  779
1645, 2346, 2347, 2352, 2351
1646, 2347, 2348, 2353, 2352
1647, 2348, 2349, 2354, 2353
1648, 2349, 2350, 2355, 2354
1649, 2350, 2190, 2191, 2355
1650,  779, 2351, 2196,  780
1651, 2351, 2352, 2195, 2196
1652, 2352, 2353, 2194, 2195
1653, 2353, 2354, 2193, 2194
1654, 2354, 2355, 2192, 2193
1655, 2355, 2191, 2161, 2192
1656,   66,   67, 2356, 2162
1657,   67,   68, 2357, 2356
1658,   68,   69, 2358, 2357
1659,   69,   70, 2359, 2358
1660,   70,   71, 2360, 2359
1661,   71,   72, 2361, 2360
1662,   72,   73, 2362, 2361
1663,   73,   74, 2363, 2362
1664,   74,   75, 2364, 2363
1665,   75,    4,   76, 2364
1666, 2162, 2356, 2365, 2163
1667, 2356, 2357, 2366, 2365
1668, 2357, 2358, 2367, 2366
1669, 2358, 2359, 2368, 2367
1670, 2359, 2360, 2369, 2368
1671, 2360, 2361, 2370, 2369
1672, 2361, 2362, 2371, 2370
1673, 2362, 2363, 2372, 2371
1674, 2363, 2364, 2373, 2372
1675, 2364,   76,   77, 2373
1676, 2163, 2365, 2374, 2164
1677, 2365, 2366, 2375, 2374
1678, 2366, 2367, 2376, 2375
1679, 2367, 2368, 2377, 2376
1680, 2368, 2369, 2378, 2377
1681, 2369, 2370, 2379, 2378
1682, 2370, 2371, 2380, 2379
1683, 2371, 2372, 2381, 2380
1684, 2372, 2373, 2382, 2381
1685, 2373,   77,   78, 2382
1686, 2164, 2374, 2383, 2165
1687, 2374, 2375, 2384, 2383
1688, 2375, 2376, 2385, 2384
1689, 2376, 2377, 2386, 2385
1690, 2377, 2378, 2387, 2386
1691, 2378, 2379, 2388, 2387
1692, 2379, 2380, 2389, 2388
1693, 2380, 2381, 2390, 2389
1694, 2381, 2382, 2391, 2390
1695, 2382,   78,   79, 2391
1696, 2165, 2383, 2392, 2166
1697, 2383, 2384, 2393, 2392
1698, 2384, 2385, 2394, 2393
1699, 2385, 2386, 2395, 2394
1700, 2386, 2387, 2396, 2395
1701, 2387, 2388, 2397, 2396
1702, 2388, 2389, 2398, 2397
1703, 2389, 2390, 2399, 2398
1704, 2390, 2391, 2400, 2399
1705, 2391,   79,   80, 2400
1706, 2166, 2392, 2401, 2167
1707, 2392, 2393, 2402, 2401
1708, 2393, 2394, 2403, 2402
1709, 2394, 2395, 2404, 2403
1710, 2395, 2396, 2405, 2404
1711, 2396, 2397, 2406, 2405
1712, 2397, 2398, 2407, 2406
1713, 2398, 2399, 2408, 2407
1714, 2399, 2400, 2409, 2408
1715, 2400,   80,   81, 2409
1716, 2167, 2401, 2410, 2168
1717, 2401, 2402, 2411, 2410
1718, 2402, 2403, 2412, 2411
1719, 2403, 2404, 2413, 2412
1720, 2404, 2405, 2414, 2413
1721, 2405, 2406, 2415, 2414
1722, 2406, 2407, 2416, 2415
1723, 2407, 2408, 2417, 2416
1724, 2408, 2409, 2418, 2417
1725, 2409,   81,   82, 2418
1726, 2168, 2410, 2419, 2169
1727, 2410, 2411, 2420, 2419
1728, 2411, 2412, 2421, 2420
1729, 2412, 2413, 2422, 2421
1730, 2413, 2414, 2423, 2422
1731, 2414, 2415, 2424, 2423
1732, 2415, 2416, 2425, 2424
1733, 2416, 2417, 2426, 2425
1734, 2417, 2418, 2427, 2426
1735, 2418,   82,   83, 2427
1736, 2169, 2419, 2428, 2170
1737, 2419, 2420, 2429, 2428
1738, 2420, 2421, 2430, 2429
1739, 2421, 2422, 2431, 2430
1740, 2422, 2423, 2432, 2431
1741, 2423, 2424, 2433, 2432
1742, 2424, 2425, 2434, 2433
1743, 2425, 2426, 2435, 2434
1744, 2426, 2427, 2436, 2435
1745, 2427,   83,   84, 2436
1746, 2170, 2428, 2437, 2171
1747, 2428, 2429, 2438, 2437
1748, 2429, 2430, 2439, 2438
1749, 2430, 2431, 2440, 2439
1750, 2431, 2432, 2441, 2440
1751, 2432, 2433, 2442, 2441
1752, 2433, 2434, 2443, 2442
1753, 2434, 2435, 2444, 2443
1754, 2435, 2436, 2445, 2444
1755, 2436,   84,   85, 2445
1756, 2171, 2437, 2446, 2172
1757, 2437, 2438, 2447, 2446
1758, 2438, 2439, 2448, 2447
1759, 2439, 2440, 2449, 2448
1760, 2440, 2441, 2450, 2449
1761, 2441, 2442, 2451, 2450
1762, 2442, 2443, 2452, 2451
1763, 2443, 2444, 2453, 2452
1764, 2444, 2445, 2454, 2453
1765, 2445,   85,   86, 2454
1766, 2172, 2446, 2455, 2173
1767, 2446, 2447, 2456, 2455
1768, 2447, 2448, 2457, 2456
1769, 2448, 2449, 2458, 2457
1770, 2449, 2450, 2459, 2458
1771, 2450, 2451, 2460, 2459
1772, 2451, 2452, 2461, 2460
1773, 2452, 2453, 2462, 2461
1774, 2453, 2454, 2463, 2462
1775, 2454,   86,   87, 2463
1776, 2173, 2455, 2464, 2174
1777, 2455, 2456, 2465, 2464
1778, 2456, 2457, 2466, 2465
1779, 2457, 2458, 2467, 2466
1780, 2458, 2459, 2468, 2467
1781, 2459, 2460, 2469, 2468
1782, 2460, 2461, 2470, 2469
1783, 2461, 2462, 2471, 2470
1784, 2462, 2463, 2472, 2471
1785, 2463,   87,   88, 2472
1786, 2174, 2464, 2473, 2175
1787, 2464, 2465, 2474, 2473
1788, 2465, 2466, 2475, 2474
1789, 2466, 2467, 2476, 2475
1790, 2467, 2468, 2477, 2476
1791, 2468, 2469, 2478, 2477
1792, 2469, 2470, 2479, 2478
1793, 2470, 2471, 2480, 2479
1794, 2471, 2472, 2481, 2480
1795, 2472,   88,   89, 2481
1796, 2175, 2473, 2482, 2176
1797, 2473, 2474, 2483, 2482
1798, 2474, 2475, 2484, 2483
1799, 2475, 2476, 2485, 2484
1800, 2476, 2477, 2486, 2485
1801, 2477, 2478, 2487, 2486
1802, 2478, 2479, 2488, 2487
1803, 2479, 2480, 2489, 2488
1804, 2480, 2481, 2490, 2489
1805, 2481,   89,   90, 2490
1806, 2176, 2482, 2491, 2177
1807, 2482, 2483, 2492, 2491
1808, 2483, 2484, 2493, 2492
1809, 2484, 2485, 2494, 2493
1810, 2485, 2486, 2495, 2494
1811, 2486, 2487, 2496, 2495
1812, 2487, 2488, 2497, 2496
1813, 2488, 2489, 2498, 2497
1814, 2489, 2490, 2499, 2498
1815, 2490,   90,   91, 2499
1816, 2177, 2491, 2500, 2178
1817, 2491, 2492, 2501, 2500
1818, 2492, 2493, 2502, 2501
1819, 2493, 2494, 2503, 2502
1820, 2494, 2495, 2504, 2503
1821, 2495, 2496, 2505, 2504
1822, 2496, 2497, 2506, 2505
1823, 2497, 2498, 2507, 2506
1824, 2498, 2499, 2508, 2507
1825, 2499,   91,   92, 2508
1826, 2178, 2500, 2509, 2179
1827, 2500, 2501, 2510, 2509
1828, 2501, 2502, 2511, 2510
1829, 2502, 2503, 2512, 2511
1830, 2503, 2504, 2513, 2512
1831, 2504, 2505, 2514, 2513
1832, 2505, 2506, 2515, 2514
1833, 2506, 2507, 2516, 2515
1834, 2507, 2508, 2517, 2516
1835, 2508,   92,   93, 2517
1836, 2179, 2509, 2518, 2180
1837, 2509, 2510, 2519, 2518
1838, 2510, 2511, 2520, 2519
1839, 2511, 2512, 2521, 2520
1840, 2512, 2513, 2522, 2521
1841, 2513, 2514, 2523, 2522
1842, 2514, 2515, 2524, 2523
1843, 2515, 2516, 2525, 2524
1844, 2516, 2517, 2526, 2525
1845, 2517,   93,   94, 2526
1846, 2180, 2518, 2527, 2181
1847, 2518, 2519, 2528, 2527
1848, 2519, 2520, 2529, 2528
1849, 2520, 2521, 2530, 2529
1850, 2521, 2522, 2531, 2530
1851, 2522, 2523, 2532, 2531
1852, 2523, 2524, 2533, 2532
1853, 2524, 2525, 2534, 2533
1854, 2525, 2526, 2535, 2534
1855, 2526,   94,   95, 2535
1856, 2181, 2527, 2536, 2182
1857, 2527, 2528, 2537, 2536
1858, 2528, 2529, 2538, 2537
1859, 2529, 2530, 2539, 2538
1860, 2530, 2531, 2540, 2539
1861, 2531, 2532, 2541, 2540
1862, 2532, 2533, 2542, 2541
1863, 2533, 2534, 2543, 2542
1864, 2534, 2535, 2544, 2543
1865, 2535,   95,   96, 2544
1866, 2182, 2536, 2545, 2183
1867, 2536, 2537, 2546, 2545
1868, 2537, 2538, 2547, 2546
1869, 2538, 2539, 2548, 2547
1870, 2539, 2540, 2549, 2548
1871, 2540, 2541, 2550, 2549
1872, 2541, 2542, 2551, 2550
1873, 2542, 2543, 2552, 2551
1874, 2543, 2544, 2553, 2552
1875, 2544,   96,   97, 2553
1876, 2183, 2545, 2554, 2184
1877, 2545, 2546, 2555, 2554
1878, 2546, 2547, 2556, 2555
1879, 2547, 2548, 2557, 2556
1880, 2548, 2549, 2558, 2557
1881, 2549, 2550, 2559, 2558
1882, 2550, 2551, 2560, 2559
1883, 2551, 2552, 2561, 2560
1884, 2552, 2553, 2562, 2561
1885, 2553,   97,   98, 2562
1886, 2184, 2554, 2563, 2185
1887, 2554, 2555, 2564, 2563
1888, 2555, 2556, 2565, 2564
1889, 2556, 2557, 2566, 2565
1890, 2557, 2558, 2567, 2566
1891, 2558, 2559, 2568, 2567
1892, 2559, 2560, 2569, 2568
1893, 2560, 2561, 2570, 2569
1894, 2561, 2562, 2571, 2570
1895, 2562,   98,   99, 2571
1896, 2185, 2563, 2572, 2186
1897, 2563, 2564, 2573, 2572
1898, 2564, 2565, 2574, 2573
1899, 2565, 2566, 2575, 2574
1900, 2566, 2567, 2576, 2575
1901, 2567, 2568, 2577, 2576
1902, 2568, 2569, 2578, 2577
1903, 2569, 2570, 2579, 2578
1904, 2570, 2571, 2580, 2579
1905, 2571,   99,  100, 2580
1906, 2186, 2572, 2581, 2187
1907, 2572, 2573, 2582, 2581
1908, 2573, 2574, 2583, 2582
1909, 2574, 2575, 2584, 2583
1910, 2575, 2576, 2585, 2584
1911, 2576, 2577, 2586, 2585
1912, 2577, 2578, 2587, 2586
1913, 2578, 2579, 2588, 2587
1914, 2579, 2580, 2589, 2588
1915, 2580,  100,  101, 2589
1916, 2187, 2581, 2590, 2188
1917, 2581, 2582, 2591, 2590
1918, 2582, 2583, 2592, 2591
1919, 2583, 2584, 2593, 2592
1920, 2584, 2585, 2594, 2593
1921, 2585, 2586, 2595, 2594
1922, 2586, 2587, 2596, 2595
1923, 2587, 2588, 2597, 2596
1924, 2588, 2589, 2598, 2597
1925, 2589,  101,  102, 2598
1926, 2188, 2590, 2599, 2189
1927, 2590, 2591, 2600, 2599
1928, 2591, 2592, 2601, 2600
1929, 2592, 2593, 2602, 2601
1930, 2593, 2594, 2603, 2602
1931, 2594, 2595, 2604, 2603
1932, 2595, 2596, 2605, 2604
1933, 2596, 2597, 2606, 2605
1934, 2597, 2598, 2607, 2606
1935, 2598,  102,  103, 2607
1936, 2189, 2599, 2608, 2190
1937, 2599, 2600, 2609, 2608
1938, 2600, 2601, 2610, 2609
1939, 2601, 2602, 2611, 2610
1940, 2602, 2603, 2612, 2611
1941, 2603, 2604, 2613, 2612
1942, 2604, 2605, 2614, 2613
1943, 2605, 2606, 2615, 2614
1944, 2606, 2607, 2616, 2615
1945, 2607,  103,  104, 2616
1946, 2190, 2608, 2617, 2191
1947, 2608, 2609, 2618, 2617
1948, 2609, 2610, 2619, 2618
1949, 2610, 2611, 2620, 2619
1950, 2611, 2612, 2621, 2620
1951, 2612, 2613, 2622, 2621
1952, 2613, 2614, 2623, 2622
1953, 2614, 2615, 2624, 2623
1954, 2615, 2616, 2625, 2624
1955, 2616,  104,  105, 2625
1956, 2191, 2617, 2205, 2161
1957, 2617, 2618, 2204, 2205
1958, 2618, 2619, 2203, 2204
1959, 2619, 2620, 2202, 2203
1960, 2620, 2621, 2201, 2202
1961, 2621, 2622, 2200, 2201
1962, 2622, 2623, 2199, 2200
1963, 2623, 2624, 2198, 2199
1964, 2624, 2625, 2197, 2198
1965, 2625,  105,  106, 2197
1966,  106,  107,  716, 2197
1967, 2197,  716,  715, 2198
1968, 2198,  715,  714, 2199
1969, 2199,  714,  713, 2200
1970, 2200,  713,  712, 2201
1971, 2201,  712,  711, 2202
1972, 2202,  711,  710, 2203
1973, 2203,  710,  709, 2204
1974, 2204,  709,  708, 2205
1975, 2205,  708,  707, 2161
1976,  707,  294,  293, 2161
1977,  293,  292, 2192, 2161
1978,  292,  291, 2193, 2192
1979,  291,  290, 2194, 2193
1980,  290,  289, 2195, 2194
1981,  289,  288, 2196, 2195
1982,  288,  287,  780, 2196
1983,  220,  221, 2665, 2639
1984,  221,  222, 2666, 2665
1985,  222,  223, 2667, 2666
1986,  223,  224, 2668, 2667
1987,  224,  225,  804, 2668
1988, 2639, 2665, 2669, 2638
1989, 2665, 2666, 2670, 2669
1990, 2666, 2667, 2671, 2670
1991, 2667, 2668, 2672, 2671
1992, 2668,  804,  805, 2672
1993, 2638, 2669, 2673, 2637
1994, 2669, 2670, 2674, 2673
1995, 2670, 2671, 2675, 2674
1996, 2671, 2672, 2676, 2675
1997, 2672,  805,  806, 2676
1998, 2637, 2673, 2677, 2636
1999, 2673, 2674, 2678, 2677
2000, 2674, 2675, 2679, 2678
2001, 2675, 2676, 2680, 2679
2002, 2676,  806,  807, 2680
2003, 2636, 2677, 2681, 2635
2004, 2677, 2678, 2682, 2681
2005, 2678, 2679, 2683, 2682
2006, 2679, 2680, 2684, 2683
2007, 2680,  807,  808, 2684
2008, 2635, 2681, 2685, 2634
2009, 2681, 2682, 2686, 2685
2010, 2682, 2683, 2687, 2686
2011, 2683, 2684, 2688, 2687
2012, 2684,  808,  809, 2688
2013, 2634, 2685, 2689, 2633
2014, 2685, 2686, 2690, 2689
2015, 2686, 2687, 2691, 2690
2016, 2687, 2688, 2692, 2691
2017, 2688,  809,  810, 2692
2018, 2633, 2689, 2693, 2632
2019, 2689, 2690, 2694, 2693
2020, 2690, 2691, 2695, 2694
2021, 2691, 2692, 2696, 2695
2022, 2692,  810,  811, 2696
2023, 2632, 2693, 2697, 2631
2024, 2693, 2694, 2698, 2697
2025, 2694, 2695, 2699, 2698
2026, 2695, 2696, 2700, 2699
2027, 2696,  811,  812, 2700
2028, 2631, 2697, 2630, 2626
2029, 2697, 2698, 2629, 2630
2030, 2698, 2699, 2628, 2629
2031, 2699, 2700, 2627, 2628
2032, 2700,  812,  813, 2627
2033,  813,  814, 2701, 2627
2034,  814,  321,  320, 2701
2035, 2627, 2701, 2702, 2628
2036, 2701,  320,  319, 2702
2037, 2628, 2702, 2703, 2629
2038, 2702,  319,  318, 2703
2039, 2629, 2703, 2704, 2630
2040, 2703,  318,  317, 2704
2041, 2630, 2704, 2640, 2626
2042, 2704,  317,  316, 2640
2043,  316,  315, 2705, 2640
2044,  315,  314, 2706, 2705
2045,  314,  313, 2707, 2706
2046,  313,  312, 2708, 2707
2047,  312,  311, 2709, 2708
2048,  311,    3,  744, 2709
2049, 2640, 2705, 2645, 2626
2050, 2705, 2706, 2644, 2645
2051, 2706, 2707, 2643, 2644
2052, 2707, 2708, 2642, 2643
2053, 2708, 2709, 2641, 2642
2054, 2709,  744,  743, 2641
2055,  743,  742, 2710, 2641
2056,  742,  741, 2711, 2710
2057,  741,  740, 2712, 2711
2058,  740,  739, 2713, 2712
2059,  739,  738, 2714, 2713
2060,  738,  737, 2715, 2714
2061,  737,  736, 2716, 2715
2062,  736,  735, 2717, 2716
2063,  735,  734, 2718, 2717
2064,  734,  733, 2719, 2718
2065,  733,  732, 2720, 2719
2066,  732,  731, 2721, 2720
2067,  731,  730, 2722, 2721
2068,  730,  729, 2723, 2722
2069,  729,  728, 2724, 2723
2070,  728,  727, 2725, 2724
2071,  727,  726, 2726, 2725
2072,  726,  725, 2727, 2726
2073,  725,  724, 2728, 2727
2074,  724,  185,  186, 2728
2075, 2641, 2710, 2729, 2642
2076, 2710, 2711, 2730, 2729
2077, 2711, 2712, 2731, 2730
2078, 2712, 2713, 2732, 2731
2079, 2713, 2714, 2733, 2732
2080, 2714, 2715, 2734, 2733
2081, 2715, 2716, 2735, 2734
2082, 2716, 2717, 2736, 2735
2083, 2717, 2718, 2737, 2736
2084, 2718, 2719, 2738, 2737
2085, 2719, 2720, 2739, 2738
2086, 2720, 2721, 2740, 2739
2087, 2721, 2722, 2741, 2740
2088, 2722, 2723, 2742, 2741
2089, 2723, 2724, 2743, 2742
2090, 2724, 2725, 2744, 2743
2091, 2725, 2726, 2745, 2744
2092, 2726, 2727, 2746, 2745
2093, 2727, 2728, 2747, 2746
2094, 2728,  186,  187, 2747
2095, 2642, 2729, 2748, 2643
2096, 2729, 2730, 2749, 2748
2097, 2730, 2731, 2750, 2749
2098, 2731, 2732, 2751, 2750
2099, 2732, 2733, 2752, 2751
2100, 2733, 2734, 2753, 2752
2101, 2734, 2735, 2754, 2753
2102, 2735, 2736, 2755, 2754
2103, 2736, 2737, 2756, 2755
2104, 2737, 2738, 2757, 2756
2105, 2738, 2739, 2758, 2757
2106, 2739, 2740, 2759, 2758
2107, 2740, 2741, 2760, 2759
2108, 2741, 2742, 2761, 2760
2109, 2742, 2743, 2762, 2761
2110, 2743, 2744, 2763, 2762
2111, 2744, 2745, 2764, 2763
2112, 2745, 2746, 2765, 2764
2113, 2746, 2747, 2766, 2765
2114, 2747,  187,  188, 2766
2115, 2643, 2748, 2767, 2644
2116, 2748, 2749, 2768, 2767
2117, 2749, 2750, 2769, 2768
2118, 2750, 2751, 2770, 2769
2119, 2751, 2752, 2771, 2770
2120, 2752, 2753, 2772, 2771
2121, 2753, 2754, 2773, 2772
2122, 2754, 2755, 2774, 2773
2123, 2755, 2756, 2775, 2774
2124, 2756, 2757, 2776, 2775
2125, 2757, 2758, 2777, 2776
2126, 2758, 2759, 2778, 2777
2127, 2759, 2760, 2779, 2778
2128, 2760, 2761, 2780, 2779
2129, 2761, 2762, 2781, 2780
2130, 2762, 2763, 2782, 2781
2131, 2763, 2764, 2783, 2782
2132, 2764, 2765, 2784, 2783
2133, 2765, 2766, 2785, 2784
2134, 2766,  188,  189, 2785
2135, 2644, 2767, 2786, 2645
2136, 2767, 2768, 2787, 2786
2137, 2768, 2769, 2788, 2787
2138, 2769, 2770, 2789, 2788
2139, 2770, 2771, 2790, 2789
2140, 2771, 2772, 2791, 2790
2141, 2772, 2773, 2792, 2791
2142, 2773, 2774, 2793, 2792
2143, 2774, 2775, 2794, 2793
2144, 2775, 2776, 2795, 2794
2145, 2776, 2777, 2796, 2795
2146, 2777, 2778, 2797, 2796
2147, 2778, 2779, 2798, 2797
2148, 2779, 2780, 2799, 2798
2149, 2780, 2781, 2800, 2799
2150, 2781, 2782, 2801, 2800
2151, 2782, 2783, 2802, 2801
2152, 2783, 2784, 2803, 2802
2153, 2784, 2785, 2804, 2803
2154, 2785,  189,  190, 2804
2155, 2645, 2786, 2664, 2626
2156, 2786, 2787, 2663, 2664
2157, 2787, 2788, 2662, 2663
2158, 2788, 2789, 2661, 2662
2159, 2789, 2790, 2660, 2661
2160, 2790, 2791, 2659, 2660
2161, 2791, 2792, 2658, 2659
2162, 2792, 2793, 2657, 2658
2163, 2793, 2794, 2656, 2657
2164, 2794, 2795, 2655, 2656
2165, 2795, 2796, 2654, 2655
2166, 2796, 2797, 2653, 2654
2167, 2797, 2798, 2652, 2653
2168, 2798, 2799, 2651, 2652
2169, 2799, 2800, 2650, 2651
2170, 2800, 2801, 2649, 2650
2171, 2801, 2802, 2648, 2649
2172, 2802, 2803, 2647, 2648
2173, 2803, 2804, 2646, 2647
2174, 2804,  190,  191, 2646
2175,  191,  192, 2805, 2646
2176,  192,  193, 2806, 2805
2177,  193,  194, 2807, 2806
2178,  194,  195, 2808, 2807
2179,  195,  196, 2809, 2808
2180,  196,  197, 2810, 2809
2181,  197,  198, 2811, 2810
2182,  198,  199, 2812, 2811
2183,  199,  200, 2813, 2812
2184,  200,    5,  201, 2813
2185, 2646, 2805, 2814, 2647
2186, 2805, 2806, 2815, 2814
2187, 2806, 2807, 2816, 2815
2188, 2807, 2808, 2817, 2816
2189, 2808, 2809, 2818, 2817
2190, 2809, 2810, 2819, 2818
2191, 2810, 2811, 2820, 2819
2192, 2811, 2812, 2821, 2820
2193, 2812, 2813, 2822, 2821
2194, 2813,  201,  202, 2822
2195, 2647, 2814, 2823, 2648
2196, 2814, 2815, 2824, 2823
2197, 2815, 2816, 2825, 2824
2198, 2816, 2817, 2826, 2825
2199, 2817, 2818, 2827, 2826
2200, 2818, 2819, 2828, 2827
2201, 2819, 2820, 2829, 2828
2202, 2820, 2821, 2830, 2829
2203, 2821, 2822, 2831, 2830
2204, 2822,  202,  203, 2831
2205, 2648, 2823, 2832, 2649
2206, 2823, 2824, 2833, 2832
2207, 2824, 2825, 2834, 2833
2208, 2825, 2826, 2835, 2834
2209, 2826, 2827, 2836, 2835
2210, 2827, 2828, 2837, 2836
2211, 2828, 2829, 2838, 2837
2212, 2829, 2830, 2839, 2838
2213, 2830, 2831, 2840, 2839
2214, 2831,  203,  204, 2840
2215, 2649, 2832, 2841, 2650
2216, 2832, 2833, 2842, 2841
2217, 2833, 2834, 2843, 2842
2218, 2834, 2835, 2844, 2843
2219, 2835, 2836, 2845, 2844
2220, 2836, 2837, 2846, 2845
2221, 2837, 2838, 2847, 2846
2222, 2838, 2839, 2848, 2847
2223, 2839, 2840, 2849, 2848
2224, 2840,  204,  205, 2849
2225, 2650, 2841, 2850, 2651
2226, 2841, 2842, 2851, 2850
2227, 2842, 2843, 2852, 2851
2228, 2843, 2844, 2853, 2852
2229, 2844, 2845, 2854, 2853
2230, 2845, 2846, 2855, 2854
2231, 2846, 2847, 2856, 2855
2232, 2847, 2848, 2857, 2856
2233, 2848, 2849, 2858, 2857
2234, 2849,  205,  206, 2858
2235, 2651, 2850, 2859, 2652
2236, 2850, 2851, 2860, 2859
2237, 2851, 2852, 2861, 2860
2238, 2852, 2853, 2862, 2861
2239, 2853, 2854, 2863, 2862
2240, 2854, 2855, 2864, 2863
2241, 2855, 2856, 2865, 2864
2242, 2856, 2857, 2866, 2865
2243, 2857, 2858, 2867, 2866
2244, 2858,  206,  207, 2867
2245, 2652, 2859, 2868, 2653
2246, 2859, 2860, 2869, 2868
2247, 2860, 2861, 2870, 2869
2248, 2861, 2862, 2871, 2870
2249, 2862, 2863, 2872, 2871
2250, 2863, 2864, 2873, 2872
2251, 2864, 2865, 2874, 2873
2252, 2865, 2866, 2875, 2874
2253, 2866, 2867, 2876, 2875
2254, 2867,  207,  208, 2876
2255, 2653, 2868, 2877, 2654
2256, 2868, 2869, 2878, 2877
2257, 2869, 2870, 2879, 2878
2258, 2870, 2871, 2880, 2879
2259, 2871, 2872, 2881, 2880
2260, 2872, 2873, 2882, 2881
2261, 2873, 2874, 2883, 2882
2262, 2874, 2875, 2884, 2883
2263, 2875, 2876, 2885, 2884
2264, 2876,  208,  209, 2885
2265, 2654, 2877, 2886, 2655
2266, 2877, 2878, 2887, 2886
2267, 2878, 2879, 2888, 2887
2268, 2879, 2880, 2889, 2888
2269, 2880, 2881, 2890, 2889
2270, 2881, 2882, 2891, 2890
2271, 2882, 2883, 2892, 2891
2272, 2883, 2884, 2893, 2892
2273, 2884, 2885, 2894, 2893
2274, 2885,  209,  210, 2894
2275, 2655, 2886, 2895, 2656
2276, 2886, 2887, 2896, 2895
2277, 2887, 2888, 2897, 2896
2278, 2888, 2889, 2898, 2897
2279, 2889, 2890, 2899, 2898
2280, 2890, 2891, 2900, 2899
2281, 2891, 2892, 2901, 2900
2282, 2892, 2893, 2902, 2901
2283, 2893, 2894, 2903, 2902
2284, 2894,  210,  211, 2903
2285, 2656, 2895, 2904, 2657
2286, 2895, 2896, 2905, 2904
2287, 2896, 2897, 2906, 2905
2288, 2897, 2898, 2907, 2906
2289, 2898, 2899, 2908, 2907
2290, 2899, 2900, 2909, 2908
2291, 2900, 2901, 2910, 2909
2292, 2901, 2902, 2911, 2910
2293, 2902, 2903, 2912, 2911
2294, 2903,  211,  212, 2912
2295, 2657, 2904, 2913, 2658
2296, 2904, 2905, 2914, 2913
2297, 2905, 2906, 2915, 2914
2298, 2906, 2907, 2916, 2915
2299, 2907, 2908, 2917, 2916
2300, 2908, 2909, 2918, 2917
2301, 2909, 2910, 2919, 2918
2302, 2910, 2911, 2920, 2919
2303, 2911, 2912, 2921, 2920
2304, 2912,  212,  213, 2921
2305, 2658, 2913, 2922, 2659
2306, 2913, 2914, 2923, 2922
2307, 2914, 2915, 2924, 2923
2308, 2915, 2916, 2925, 2924
2309, 2916, 2917, 2926, 2925
2310, 2917, 2918, 2927, 2926
2311, 2918, 2919, 2928, 2927
2312, 2919, 2920, 2929, 2928
2313, 2920, 2921, 2930, 2929
2314, 2921,  213,  214, 2930
2315, 2659, 2922, 2931, 2660
2316, 2922, 2923, 2932, 2931
2317, 2923, 2924, 2933, 2932
2318, 2924, 2925, 2934, 2933
2319, 2925, 2926, 2935, 2934
2320, 2926, 2927, 2936, 2935
2321, 2927, 2928, 2937, 2936
2322, 2928, 2929, 2938, 2937
2323, 2929, 2930, 2939, 2938
2324, 2930,  214,  215, 2939
2325, 2660, 2931, 2940, 2661
2326, 2931, 2932, 2941, 2940
2327, 2932, 2933, 2942, 2941
2328, 2933, 2934, 2943, 2942
2329, 2934, 2935, 2944, 2943
2330, 2935, 2936, 2945, 2944
2331, 2936, 2937, 2946, 2945
2332, 2937, 2938, 2947, 2946
2333, 2938, 2939, 2948, 2947
2334, 2939,  215,  216, 2948
2335, 2661, 2940, 2949, 2662
2336, 2940, 2941, 2950, 2949
2337, 2941, 2942, 2951, 2950
2338, 2942, 2943, 2952, 2951
2339, 2943, 2944, 2953, 2952
2340, 2944, 2945, 2954, 2953
2341, 2945, 2946, 2955, 2954
2342, 2946, 2947, 2956, 2955
2343, 2947, 2948, 2957, 2956
2344, 2948,  216,  217, 2957
2345, 2662, 2949, 2958, 2663
2346, 2949, 2950, 2959, 2958
2347, 2950, 2951, 2960, 2959
2348, 2951, 2952, 2961, 2960
2349, 2952, 2953, 2962, 2961
2350, 2953, 2954, 2963, 2962
2351, 2954, 2955, 2964, 2963
2352, 2955, 2956, 2965, 2964
2353, 2956, 2957, 2966, 2965
2354, 2957,  217,  218, 2966
2355, 2663, 2958, 2967, 2664
2356, 2958, 2959, 2968, 2967
2357, 2959, 2960, 2969, 2968
2358, 2960, 2961, 2970, 2969
2359, 2961, 2962, 2971, 2970
2360, 2962, 2963, 2972, 2971
2361, 2963, 2964, 2973, 2972
2362, 2964, 2965, 2974, 2973
2363, 2965, 2966, 2975, 2974
2364, 2966,  218,  219, 2975
2365, 2664, 2967, 2631, 2626
2366, 2967, 2968, 2632, 2631
2367, 2968, 2969, 2633, 2632
2368, 2969, 2970, 2634, 2633
2369, 2970, 2971, 2635, 2634
2370, 2971, 2972, 2636, 2635
2371, 2972, 2973, 2637, 2636
2372, 2973, 2974, 2638, 2637
2373, 2974, 2975, 2639, 2638
2374, 2975,  219,  220, 2639
2375,  820,  821, 3002, 2993
2376,  821,  822, 3003, 3002
2377,  822,  823, 3004, 3003
2378,  823,  824, 3005, 3004
2379,  824,  636,  759, 3005
2380, 2993, 3002, 3006, 2992
2381, 3002, 3003, 3007, 3006
2382, 3003, 3004, 3008, 3007
2383, 3004, 3005, 3009, 3008
2384, 3005,  759,  758, 3009
2385, 2992, 3006, 3010, 2991
2386, 3006, 3007, 3011, 3010
2387, 3007, 3008, 3012, 3011
2388, 3008, 3009, 3013, 3012
2389, 3009,  758,  757, 3013
2390, 2991, 3010, 3014, 2990
2391, 3010, 3011, 3015, 3014
2392, 3011, 3012, 3016, 3015
2393, 3012, 3013, 3017, 3016
2394, 3013,  757,  756, 3017
2395, 2990, 3014, 3018, 2989
2396, 3014, 3015, 3019, 3018
2397, 3015, 3016, 3020, 3019
2398, 3016, 3017, 3021, 3020
2399, 3017,  756,  755, 3021
2400, 2989, 3018, 3022, 2988
2401, 3018, 3019, 3023, 3022
2402, 3019, 3020, 3024, 3023
2403, 3020, 3021, 3025, 3024
2404, 3021,  755,  754, 3025
2405, 2988, 3022, 3026, 2987
2406, 3022, 3023, 3027, 3026
2407, 3023, 3024, 3028, 3027
2408, 3024, 3025, 3029, 3028
2409, 3025,  754,  753, 3029
2410, 2987, 3026, 3030, 2986
2411, 3026, 3027, 3031, 3030
2412, 3027, 3028, 3032, 3031
2413, 3028, 3029, 3033, 3032
2414, 3029,  753,  752, 3033
2415, 2986, 3030, 3034, 2985
2416, 3030, 3031, 3035, 3034
2417, 3031, 3032, 3036, 3035
2418, 3032, 3033, 3037, 3036
2419, 3033,  752,  751, 3037
2420, 2985, 3034, 3038, 2984
2421, 3034, 3035, 3039, 3038
2422, 3035, 3036, 3040, 3039
2423, 3036, 3037, 3041, 3040
2424, 3037,  751,  750, 3041
2425, 2984, 3038, 3042, 2983
2426, 3038, 3039, 3043, 3042
2427, 3039, 3040, 3044, 3043
2428, 3040, 3041, 3045, 3044
2429, 3041,  750,  749, 3045
2430, 2983, 3042, 3046, 2982
2431, 3042, 3043, 3047, 3046
2432, 3043, 3044, 3048, 3047
2433, 3044, 3045, 3049, 3048
2434, 3045,  749,  748, 3049
2435, 2982, 3046, 3050, 2981
2436, 3046, 3047, 3051, 3050
2437, 3047, 3048, 3052, 3051
2438, 3048, 3049, 3053, 3052
2439, 3049,  748,  747, 3053
2440, 2981, 3050, 2980, 2976
2441, 3050, 3051, 2979, 2980
2442, 3051, 3052, 2978, 2979
2443, 3052, 3053, 2977, 2978
2444, 3053,  747,  746, 2977
2445,  746,  745, 3054, 2977
2446,  745,  635,  723, 3054
2447, 2977, 3054, 3055, 2978
2448, 3054,  723,  722, 3055
2449, 2978, 3055, 3056, 2979
2450, 3055,  722,  721, 3056
2451, 2979, 3056, 3057, 2980
2452, 3056,  721,  720, 3057
2453, 2980, 3057, 2994, 2976
2454, 3057,  720,  719, 2994
2455,  719,  718, 3058, 2994
2456,  718,  717, 3059, 3058
2457,  717,  344,  343, 3059
2458, 2994, 3058, 2996, 2976
2459, 3058, 3059, 2995, 2996
2460, 3059,  343,  342, 2995
2461,  342,  341, 3060, 2995
2462,  341,  340, 3061, 3060
2463,  340,  339, 3062, 3061
2464,  339,  338, 3063, 3062
2465,  338,  337, 3064, 3063
2466,  337,  336,  825, 3064
2467, 2995, 3060, 3065, 2996
2468, 3060, 3061, 3066, 3065
2469, 3061, 3062, 3067, 3066
2470, 3062, 3063, 3068, 3067
2471, 3063, 3064, 3069, 3068
2472, 3064,  825,  826, 3069
2473, 2996, 3065, 3001, 2976
2474, 3065, 3066, 3000, 3001
2475, 3066, 3067, 2999, 3000
2476, 3067, 3068, 2998, 2999
2477, 3068, 3069, 2997, 2998
2478, 3069,  826,  827, 2997
2479,  827,  828, 3070, 2997
2480,  828,  829, 3071, 3070
2481,  829,  830, 3072, 3071
2482,  830,  831, 3073, 3072
2483,  831,  832, 3074, 3073
2484,  832,  833, 3075, 3074
2485,  833,  834, 3076, 3075
2486,  834,  835, 3077, 3076
2487,  835,  836, 3078, 3077
2488,  836,  837, 3079, 3078
2489,  837,  838, 3080, 3079
2490,  838,  839, 3081, 3080
2491,  839,  840, 3082, 3081
2492,  840,  638,  815, 3082
2493, 2997, 3070, 3083, 2998
2494, 3070, 3071, 3084, 3083
2495, 3071, 3072, 3085, 3084
2496, 3072, 3073, 3086, 3085
2497, 3073, 3074, 3087, 3086
2498, 3074, 3075, 3088, 3087
2499, 3075, 3076, 3089, 3088
2500, 3076, 3077, 3090, 3089
2501, 3077, 3078, 3091, 3090
2502, 3078, 3079, 3092, 3091
2503, 3079, 3080, 3093, 3092
2504, 3080, 3081, 3094, 3093
2505, 3081, 3082, 3095, 3094
2506, 3082,  815,  816, 3095
2507, 2998, 3083, 3096, 2999
2508, 3083, 3084, 3097, 3096
2509, 3084, 3085, 3098, 3097
2510, 3085, 3086, 3099, 3098
2511, 3086, 3087, 3100, 3099
2512, 3087, 3088, 3101, 3100
2513, 3088, 3089, 3102, 3101
2514, 3089, 3090, 3103, 3102
2515, 3090, 3091, 3104, 3103
2516, 3091, 3092, 3105, 3104
2517, 3092, 3093, 3106, 3105
2518, 3093, 3094, 3107, 3106
2519, 3094, 3095, 3108, 3107
2520, 3095,  816,  817, 3108
2521, 2999, 3096, 3109, 3000
2522, 3096, 3097, 3110, 3109
2523, 3097, 3098, 3111, 3110
2524, 3098, 3099, 3112, 3111
2525, 3099, 3100, 3113, 3112
2526, 3100, 3101, 3114, 3113
2527, 3101, 3102, 3115, 3114
2528, 3102, 3103, 3116, 3115
2529, 3103, 3104, 3117, 3116
2530, 3104, 3105, 3118, 3117
2531, 3105, 3106, 3119, 3118
2532, 3106, 3107, 3120, 3119
2533, 3107, 3108, 3121, 3120
2534, 3108,  817,  818, 3121
2535, 3000, 3109, 3122, 3001
2536, 3109, 3110, 3123, 3122
2537, 3110, 3111, 3124, 3123
2538, 3111, 3112, 3125, 3124
2539, 3112, 3113, 3126, 3125
2540, 3113, 3114, 3127, 3126
2541, 3114, 3115, 3128, 3127
2542, 3115, 3116, 3129, 3128
2543, 3116, 3117, 3130, 3129
2544, 3117, 3118, 3131, 3130
2545, 3118, 3119, 3132, 3131
2546, 3119, 3120, 3133, 3132
2547, 3120, 3121, 3134, 3133
2548, 3121,  818,  819, 3134
2549, 3001, 3122, 2981, 2976
2550, 3122, 3123, 2982, 2981
2551, 3123, 3124, 2983, 2982
2552, 3124, 3125, 2984, 2983
2553, 3125, 3126, 2985, 2984
2554, 3126, 3127, 2986, 2985
2555, 3127, 3128, 2987, 2986
2556, 3128, 3129, 2988, 2987
2557, 3129, 3130, 2989, 2988
2558, 3130, 3131, 2990, 2989
2559, 3131, 3132, 2991, 2990
2560, 3132, 3133, 2992, 2991
2561, 3133, 3134, 2993, 2992
2562, 3134,  819,  820, 2993
2563,  637,  773, 3135,  781
2564,  773,  772, 3136, 3135
2565,  772,  771, 3137, 3136
2566,  771,  770, 3138, 3137
2567,  770,  769, 3139, 3138
2568,  769,  768, 3140, 3139
2569,  768,  767, 3141, 3140
2570,  767,  766, 3142, 3141
2571,  766,  765, 3143, 3142
2572,  765,  764, 3144, 3143
2573,  764,  763, 3145, 3144
2574,  763,  762, 3146, 3145
2575,  762,  761, 3147, 3146
2576,  761,  760, 3148, 3147
2577,  760,  636, 3149, 3148
2578,  636,  824, 3150, 3149
2579,  824,  823, 3151, 3150
2580,  823,  822, 3152, 3151
2581,  822,  821, 3153, 3152
2582,  821,  820, 3154, 3153
2583,  820,  819, 3155, 3154
2584,  819,  818, 3156, 3155
2585,  818,  817, 3157, 3156
2586,  817,  816, 3158, 3157
2587,  816,  815, 3159, 3158
2588,  815,  638,  841, 3159
2589,  781, 3135, 3160,  782
2590, 3135, 3136, 3161, 3160
2591, 3136, 3137, 3162, 3161
2592, 3137, 3138, 3163, 3162
2593, 3138, 3139, 3164, 3163
2594, 3139, 3140, 3165, 3164
2595, 3140, 3141, 3166, 3165
2596, 3141, 3142, 3167, 3166
2597, 3142, 3143, 3168, 3167
2598, 3143, 3144, 3169, 3168
2599, 3144, 3145, 3170, 3169
2600, 3145, 3146, 3171, 3170
2601, 3146, 3147, 3172, 3171
2602, 3147, 3148, 3173, 3172
2603, 3148, 3149, 3174, 3173
2604, 3149, 3150, 3175, 3174
2605, 3150, 3151, 3176, 3175
2606, 3151, 3152, 3177, 3176
2607, 3152, 3153, 3178, 3177
2608, 3153, 3154, 3179, 3178
2609, 3154, 3155, 3180, 3179
2610, 3155, 3156, 3181, 3180
2611, 3156, 3157, 3182, 3181
2612, 3157, 3158, 3183, 3182
2613, 3158, 3159, 3184, 3183
2614, 3159,  841,  842, 3184
2615,  782, 3160, 3185,  783
2616, 3160, 3161, 3186, 3185
2617, 3161, 3162, 3187, 3186
2618, 3162, 3163, 3188, 3187
2619, 3163, 3164, 3189, 3188
2620, 3164, 3165, 3190, 3189
2621, 3165, 3166, 3191, 3190
2622, 3166, 3167, 3192, 3191
2623, 3167, 3168, 3193, 3192
2624, 3168, 3169, 3194, 3193
2625, 3169, 3170, 3195, 3194
2626, 3170, 3171, 3196, 3195
2627, 3171, 3172, 3197, 3196
2628, 3172, 3173, 3198, 3197
2629, 3173, 3174, 3199, 3198
2630, 3174, 3175, 3200, 3199
2631, 3175, 3176, 3201, 3200
2632, 3176, 3177, 3202, 3201
2633, 3177, 3178, 3203, 3202
2634, 3178, 3179, 3204, 3203
2635, 3179, 3180, 3205, 3204
2636, 3180, 3181, 3206, 3205
2637, 3181, 3182, 3207, 3206
2638, 3182, 3183, 3208, 3207
2639, 3183, 3184, 3209, 3208
2640, 3184,  842,  843, 3209
2641,  783, 3185, 3210,  784
2642, 3185, 3186, 3211, 3210
2643, 3186, 3187, 3212, 3211
2644, 3187, 3188, 3213, 3212
2645, 3188, 3189, 3214, 3213
2646, 3189, 3190, 3215, 3214
2647, 3190, 3191, 3216, 3215
2648, 3191, 3192, 3217, 3216
2649, 3192, 3193, 3218, 3217
2650, 3193, 3194, 3219, 3218
2651, 3194, 3195, 3220, 3219
2652, 3195, 3196, 3221, 3220
2653, 3196, 3197, 3222, 3221
2654, 3197, 3198, 3223, 3222
2655, 3198, 3199, 3224, 3223
2656, 3199, 3200, 3225, 3224
2657, 3200, 3201, 3226, 3225
2658, 3201, 3202, 3227, 3226
2659, 3202, 3203, 3228, 3227
2660, 3203, 3204, 3229, 3228
2661, 3204, 3205, 3230, 3229
2662, 3205, 3206, 3231, 3230
2663, 3206, 3207, 3232, 3231
2664, 3207, 3208, 3233, 3232
2665, 3208, 3209, 3234, 3233
2666, 3209,  843,  844, 3234
2667,  784, 3210, 3235,  785
2668, 3210, 3211, 3236, 3235
2669, 3211, 3212, 3237, 3236
2670, 3212, 3213, 3238, 3237
2671, 3213, 3214, 3239, 3238
2672, 3214, 3215, 3240, 3239
2673, 3215, 3216, 3241, 3240
2674, 3216, 3217, 3242, 3241
2675, 3217, 3218, 3243, 3242
2676, 3218, 3219, 3244, 3243
2677, 3219, 3220, 3245, 3244
2678, 3220, 3221, 3246, 3245
2679, 3221, 3222, 3247, 3246
2680, 3222, 3223, 3248, 3247
2681, 3223, 3224, 3249, 3248
2682, 3224, 3225, 3250, 3249
2683, 3225, 3226, 3251, 3250
2684, 3226, 3227, 3252, 3251
2685, 3227, 3228, 3253, 3252
2686, 3228, 3229, 3254, 3253
2687, 3229, 3230, 3255, 3254
2688, 3230, 3231, 3256, 3255
2689, 3231, 3232, 3257, 3256
2690, 3232, 3233, 3258, 3257
2691, 3233, 3234, 3259, 3258
2692, 3234,  844,  845, 3259
2693,  785, 3235, 3260,  786
2694, 3235, 3236, 3261, 3260
2695, 3236, 3237, 3262, 3261
2696, 3237, 3238, 3263, 3262
2697, 3238, 3239, 3264, 3263
2698, 3239, 3240, 3265, 3264
2699, 3240, 3241, 3266, 3265
2700, 3241, 3242, 3267, 3266
2701, 3242, 3243, 3268, 3267
2702, 3243, 3244, 3269, 3268
2703, 3244, 3245, 3270, 3269
2704, 3245, 3246, 3271, 3270
2705, 3246, 3247, 3272, 3271
2706, 3247, 3248, 3273, 3272
2707, 3248, 3249, 3274, 3273
2708, 3249, 3250, 3275, 3274
2709, 3250, 3251, 3276, 3275
2710, 3251, 3252, 3277, 3276
2711, 3252, 3253, 3278, 3277
2712, 3253, 3254, 3279, 3278
2713, 3254, 3255, 3280, 3279
2714, 3255, 3256, 3281, 3280
2715, 3256, 3257, 3282, 3281
2716, 3257, 3258, 3283, 3282
2717, 3258, 3259, 3284, 3283
2718, 3259,  845,  846, 3284
2719,  786, 3260, 3285,  787
2720, 3260, 3261, 3286, 3285
2721, 3261, 3262, 3287, 3286
2722, 3262, 3263, 3288, 3287
2723, 3263, 3264, 3289, 3288
2724, 3264, 3265, 3290, 3289
2725, 3265, 3266, 3291, 3290
2726, 3266, 3267, 3292, 3291
2727, 3267, 3268, 3293, 3292
2728, 3268, 3269, 3294, 3293
2729, 3269, 3270, 3295, 3294
2730, 3270, 3271, 3296, 3295
2731, 3271, 3272, 3297, 3296
2732, 3272, 3273, 3298, 3297
2733, 3273, 3274, 3299, 3298
2734, 3274, 3275, 3300, 3299
2735, 3275, 3276, 3301, 3300
2736, 3276, 3277, 3302, 3301
2737, 3277, 3278, 3303, 3302
2738, 3278, 3279, 3304, 3303
2739, 3279, 3280, 3305, 3304
2740, 3280, 3281, 3306, 3305
2741, 3281, 3282, 3307, 3306
2742, 3282, 3283, 3308, 3307
2743, 3283, 3284, 3309, 3308
2744, 3284,  846,  847, 3309
2745,  787, 3285, 3310,  788
2746, 3285, 3286, 3311, 3310
2747, 3286, 3287, 3312, 3311
2748, 3287, 3288, 3313, 3312
2749, 3288, 3289, 3314, 3313
2750, 3289, 3290, 3315, 3314
2751, 3290, 3291, 3316, 3315
2752, 3291, 3292, 3317, 3316
2753, 3292, 3293, 3318, 3317
2754, 3293, 3294, 3319, 3318
2755, 3294, 3295, 3320, 3319
2756, 3295, 3296, 3321, 3320
2757, 3296, 3297, 3322, 3321
2758, 3297, 3298, 3323, 3322
2759, 3298, 3299, 3324, 3323
2760, 3299, 3300, 3325, 3324
2761, 3300, 3301, 3326, 3325
2762, 3301, 3302, 3327, 3326
2763, 3302, 3303, 3328, 3327
2764, 3303, 3304, 3329, 3328
2765, 3304, 3305, 3330, 3329
2766, 3305, 3306, 3331, 3330
2767, 3306, 3307, 3332, 3331
2768, 3307, 3308, 3333, 3332
2769, 3308, 3309, 3334, 3333
2770, 3309,  847,  848, 3334
2771,  788, 3310, 3335,  789
2772, 3310, 3311, 3336, 3335
2773, 3311, 3312, 3337, 3336
2774, 3312, 3313, 3338, 3337
2775, 3313, 3314, 3339, 3338
2776, 3314, 3315, 3340, 3339
2777, 3315, 3316, 3341, 3340
2778, 3316, 3317, 3342, 3341
2779, 3317, 3318, 3343, 3342
2780, 3318, 3319, 3344, 3343
2781, 3319, 3320, 3345, 3344
2782, 3320, 3321, 3346, 3345
2783, 3321, 3322, 3347, 3346
2784, 3322, 3323, 3348, 3347
2785, 3323, 3324, 3349, 3348
2786, 3324, 3325, 3350, 3349
2787, 3325, 3326, 3351, 3350
2788, 3326, 3327, 3352, 3351
2789, 3327, 3328, 3353, 3352
2790, 3328, 3329, 3354, 3353
2791, 3329, 3330, 3355, 3354
2792, 3330, 3331, 3356, 3355
2793, 3331, 3332, 3357, 3356
2794, 3332, 3333, 3358, 3357
2795, 3333, 3334, 3359, 3358
2796, 3334,  848,  849, 3359
2797,  789, 3335, 3360,  790
2798, 3335, 3336, 3361, 3360
2799, 3336, 3337, 3362, 3361
2800, 3337, 3338, 3363, 3362
2801, 3338, 3339, 3364, 3363
2802, 3339, 3340, 3365, 3364
2803, 3340, 3341, 3366, 3365
2804, 3341, 3342, 3367, 3366
2805, 3342, 3343, 3368, 3367
2806, 3343, 3344, 3369, 3368
2807, 3344, 3345, 3370, 3369
2808, 3345, 3346, 3371, 3370
2809, 3346, 3347, 3372, 3371
2810, 3347, 3348, 3373, 3372
2811, 3348, 3349, 3374, 3373
2812, 3349, 3350, 3375, 3374
2813, 3350, 3351, 3376, 3375
2814, 3351, 3352, 3377, 3376
2815, 3352, 3353, 3378, 3377
2816, 3353, 3354, 3379, 3378
2817, 3354, 3355, 3380, 3379
2818, 3355, 3356, 3381, 3380
2819, 3356, 3357, 3382, 3381
2820, 3357, 3358, 3383, 3382
2821, 3358, 3359, 3384, 3383
2822, 3359,  849,  850, 3384
2823,  790, 3360, 3385,  791
2824, 3360, 3361, 3386, 3385
2825, 3361, 3362, 3387, 3386
2826, 3362, 3363, 3388, 3387
2827, 3363, 3364, 3389, 3388
2828, 3364, 3365, 3390, 3389
2829, 3365, 3366, 3391, 3390
2830, 3366, 3367, 3392, 3391
2831, 3367, 3368, 3393, 3392
2832, 3368, 3369, 3394, 3393
2833, 3369, 3370, 3395, 3394
2834, 3370, 3371, 3396, 3395
2835, 3371, 3372, 3397, 3396
2836, 3372, 3373, 3398, 3397
2837, 3373, 3374, 3399, 3398
2838, 3374, 3375, 3400, 3399
2839, 3375, 3376, 3401, 3400
2840, 3376, 3377, 3402, 3401
2841, 3377, 3378, 3403, 3402
2842, 3378, 3379, 3404, 3403
2843, 3379, 3380, 3405, 3404
2844, 3380, 3381, 3406, 3405
2845, 3381, 3382, 3407, 3406
2846, 3382, 3383, 3408, 3407
2847, 3383, 3384, 3409, 3408
2848, 3384,  850,  851, 3409
2849,  791, 3385, 3410,  792
2850, 3385, 3386, 3411, 3410
2851, 3386, 3387, 3412, 3411
2852, 3387, 3388, 3413, 3412
2853, 3388, 3389, 3414, 3413
2854, 3389, 3390, 3415, 3414
2855, 3390, 3391, 3416, 3415
2856, 3391, 3392, 3417, 3416
2857, 3392, 3393, 3418, 3417
2858, 3393, 3394, 3419, 3418
2859, 3394, 3395, 3420, 3419
2860, 3395, 3396, 3421, 3420
2861, 3396, 3397, 3422, 3421
2862, 3397, 3398, 3423, 3422
2863, 3398, 3399, 3424, 3423
2864, 3399, 3400, 3425, 3424
2865, 3400, 3401, 3426, 3425
2866, 3401, 3402, 3427, 3426
2867, 3402, 3403, 3428, 3427
2868, 3403, 3404, 3429, 3428
2869, 3404, 3405, 3430, 3429
2870, 3405, 3406, 3431, 3430
2871, 3406, 3407, 3432, 3431
2872, 3407, 3408, 3433, 3432
2873, 3408, 3409, 3434, 3433
2874, 3409,  851,  852, 3434
2875,  792, 3410, 3435,  793
2876, 3410, 3411, 3436, 3435
2877, 3411, 3412, 3437, 3436
2878, 3412, 3413, 3438, 3437
2879, 3413, 3414, 3439, 3438
2880, 3414, 3415, 3440, 3439
2881, 3415, 3416, 3441, 3440
2882, 3416, 3417, 3442, 3441
2883, 3417, 3418, 3443, 3442
2884, 3418, 3419, 3444, 3443
2885, 3419, 3420, 3445, 3444
2886, 3420, 3421, 3446, 3445
2887, 3421, 3422, 3447, 3446
2888, 3422, 3423, 3448, 3447
2889, 3423, 3424, 3449, 3448
2890, 3424, 3425, 3450, 3449
2891, 3425, 3426, 3451, 3450
2892, 3426, 3427, 3452, 3451
2893, 3427, 3428, 3453, 3452
2894, 3428, 3429, 3454, 3453
2895, 3429, 3430, 3455, 3454
2896, 3430, 3431, 3456, 3455
2897, 3431, 3432, 3457, 3456
2898, 3432, 3433, 3458, 3457
2899, 3433, 3434, 3459, 3458
2900, 3434,  852,  853, 3459
2901,  793, 3435, 3460,  794
2902, 3435, 3436, 3461, 3460
2903, 3436, 3437, 3462, 3461
2904, 3437, 3438, 3463, 3462
2905, 3438, 3439, 3464, 3463
2906, 3439, 3440, 3465, 3464
2907, 3440, 3441, 3466, 3465
2908, 3441, 3442, 3467, 3466
2909, 3442, 3443, 3468, 3467
2910, 3443, 3444, 3469, 3468
2911, 3444, 3445, 3470, 3469
2912, 3445, 3446, 3471, 3470
2913, 3446, 3447, 3472, 3471
2914, 3447, 3448, 3473, 3472
2915, 3448, 3449, 3474, 3473
2916, 3449, 3450, 3475, 3474
2917, 3450, 3451, 3476, 3475
2918, 3451, 3452, 3477, 3476
2919, 3452, 3453, 3478, 3477
2920, 3453, 3454, 3479, 3478
2921, 3454, 3455, 3480, 3479
2922, 3455, 3456, 3481, 3480
2923, 3456, 3457, 3482, 3481
2924, 3457, 3458, 3483, 3482
2925, 3458, 3459, 3484, 3483
2926, 3459,  853,  854, 3484
2927,  794, 3460, 3485,  795
2928, 3460, 3461, 3486, 3485
2929, 3461, 3462, 3487, 3486
2930, 3462, 3463, 3488, 3487
2931, 3463, 3464, 3489, 3488
2932, 3464, 3465, 3490, 3489
2933, 3465, 3466, 3491, 3490
2934, 3466, 3467, 3492, 3491
2935, 3467, 3468, 3493, 3492
2936, 3468, 3469, 3494, 3493
2937, 3469, 3470, 3495, 3494
2938, 3470, 3471, 3496, 3495
2939, 3471, 3472, 3497, 3496
2940, 3472, 3473, 3498, 3497
2941, 3473, 3474, 3499, 3498
2942, 3474, 3475, 3500, 3499
2943, 3475, 3476, 3501, 3500
2944, 3476, 3477, 3502, 3501
2945, 3477, 3478, 3503, 3502
2946, 3478, 3479, 3504, 3503
2947, 3479, 3480, 3505, 3504
2948, 3480, 3481, 3506, 3505
2949, 3481, 3482, 3507, 3506
2950, 3482, 3483, 3508, 3507
2951, 3483, 3484, 3509, 3508
2952, 3484,  854,  855, 3509
2953,  795, 3485, 3510,  796
2954, 3485, 3486, 3511, 3510
2955, 3486, 3487, 3512, 3511
2956, 3487, 3488, 3513, 3512
2957, 3488, 3489, 3514, 3513
2958, 3489, 3490, 3515, 3514
2959, 3490, 3491, 3516, 3515
2960, 3491, 3492, 3517, 3516
2961, 3492, 3493, 3518, 3517
2962, 3493, 3494, 3519, 3518
2963, 3494, 3495, 3520, 3519
2964, 3495, 3496, 3521, 3520
2965, 3496, 3497, 3522, 3521
2966, 3497, 3498, 3523, 3522
2967, 3498, 3499, 3524, 3523
2968, 3499, 3500, 3525, 3524
2969, 3500, 3501, 3526, 3525
2970, 3501, 3502, 3527, 3526
2971, 3502, 3503, 3528, 3527
2972, 3503, 3504, 3529, 3528
2973, 3504, 3505, 3530, 3529
2974, 3505, 3506, 3531, 3530
2975, 3506, 3507, 3532, 3531
2976, 3507, 3508, 3533, 3532
2977, 3508, 3509, 3534, 3533
2978, 3509,  855,  856, 3534
2979,  796, 3510, 3535,  797
2980, 3510, 3511, 3536, 3535
2981, 3511, 3512, 3537, 3536
2982, 3512, 3513, 3538, 3537
2983, 3513, 3514, 3539, 3538
2984, 3514, 3515, 3540, 3539
2985, 3515, 3516, 3541, 3540
2986, 3516, 3517, 3542, 3541
2987, 3517, 3518, 3543, 3542
2988, 3518, 3519, 3544, 3543
2989, 3519, 3520, 3545, 3544
2990, 3520, 3521, 3546, 3545
2991, 3521, 3522, 3547, 3546
2992, 3522, 3523, 3548, 3547
2993, 3523, 3524, 3549, 3548
2994, 3524, 3525, 3550, 3549
2995, 3525, 3526, 3551, 3550
2996, 3526, 3527, 3552, 3551
2997, 3527, 3528, 3553, 3552
2998, 3528, 3529, 3554, 3553
2999, 3529, 3530, 3555, 3554
3000, 3530, 3531, 3556, 3555
3001, 3531, 3532, 3557, 3556
3002, 3532, 3533, 3558, 3557
3003, 3533, 3534, 3559, 3558
3004, 3534,  856,  857, 3559
3005,  797, 3535, 3560,  798
3006, 3535, 3536, 3561, 3560
3007, 3536, 3537, 3562, 3561
3008, 3537, 3538, 3563, 3562
3009, 3538, 3539, 3564, 3563
3010, 3539, 3540, 3565, 3564
3011, 3540, 3541, 3566, 3565
3012, 3541, 3542, 3567, 3566
3013, 3542, 3543, 3568, 3567
3014, 3543, 3544, 3569, 3568
3015, 3544, 3545, 3570, 3569
3016, 3545, 3546, 3571, 3570
3017, 3546, 3547, 3572, 3571
3018, 3547, 3548, 3573, 3572
3019, 3548, 3549, 3574, 3573
3020, 3549, 3550, 3575, 3574
3021, 3550, 3551, 3576, 3575
3022, 3551, 3552, 3577, 3576
3023, 3552, 3553, 3578, 3577
3024, 3553, 3554, 3579, 3578
3025, 3554, 3555, 3580, 3579
3026, 3555, 3556, 3581, 3580
3027, 3556, 3557, 3582, 3581
3028, 3557, 3558, 3583, 3582
3029, 3558, 3559, 3584, 3583
3030, 3559,  857,  858, 3584
3031,  798, 3560, 3585,  799
3032, 3560, 3561, 3586, 3585
3033, 3561, 3562, 3587, 3586
3034, 3562, 3563, 3588, 3587
3035, 3563, 3564, 3589, 3588
3036, 3564, 3565, 3590, 3589
3037, 3565, 3566, 3591, 3590
3038, 3566, 3567, 3592, 3591
3039, 3567, 3568, 3593, 3592
3040, 3568, 3569, 3594, 3593
3041, 3569, 3570, 3595, 3594
3042, 3570, 3571, 3596, 3595
3043, 3571, 3572, 3597, 3596
3044, 3572, 3573, 3598, 3597
3045, 3573, 3574, 3599, 3598
3046, 3574, 3575, 3600, 3599
3047, 3575, 3576, 3601, 3600
3048, 3576, 3577, 3602, 3601
3049, 3577, 3578, 3603, 3602
3050, 3578, 3579, 3604, 3603
3051, 3579, 3580, 3605, 3604
3052, 3580, 3581, 3606, 3605
3053, 3581, 3582, 3607, 3606
3054, 3582, 3583, 3608, 3607
3055, 3583, 3584, 3609, 3608
3056, 3584,  858,  859, 3609
3057,  799, 3585, 3610,  800
3058, 3585, 3586, 3611, 3610
3059, 3586, 3587, 3612, 3611
3060, 3587, 3588, 3613, 3612
3061, 3588, 3589, 3614, 3613
3062, 3589, 3590, 3615, 3614
3063, 3590, 3591, 3616, 3615
3064, 3591, 3592, 3617, 3616
3065, 3592, 3593, 3618, 3617
3066, 3593, 3594, 3619, 3618
3067, 3594, 3595, 3620, 3619
3068, 3595, 3596, 3621, 3620
3069, 3596, 3597, 3622, 3621
3070, 3597, 3598, 3623, 3622
3071, 3598, 3599, 3624, 3623
3072, 3599, 3600, 3625, 3624
3073, 3600, 3601, 3626, 3625
3074, 3601, 3602, 3627, 3626
3075, 3602, 3603, 3628, 3627
3076, 3603, 3604, 3629, 3628
3077, 3604, 3605, 3630, 3629
3078, 3605, 3606, 3631, 3630
3079, 3606, 3607, 3632, 3631
3080, 3607, 3608, 3633, 3632
3081, 3608, 3609, 3634, 3633
3082, 3609,  859,  860, 3634
3083,  800, 3610, 3635,  801
3084, 3610, 3611, 3636, 3635
3085, 3611, 3612, 3637, 3636
3086, 3612, 3613, 3638, 3637
3087, 3613, 3614, 3639, 3638
3088, 3614, 3615, 3640, 3639
3089, 3615, 3616, 3641, 3640
3090, 3616, 3617, 3642, 3641
3091, 3617, 3618, 3643, 3642
3092, 3618, 3619, 3644, 3643
3093, 3619, 3620, 3645, 3644
3094, 3620, 3621, 3646, 3645
3095, 3621, 3622, 3647, 3646
3096, 3622, 3623, 3648, 3647
3097, 3623, 3624, 3649, 3648
3098, 3624, 3625, 3650, 3649
3099, 3625, 3626, 3651, 3650
3100, 3626, 3627, 3652, 3651
3101, 3627, 3628, 3653, 3652
3102, 3628, 3629, 3654, 3653
3103, 3629, 3630, 3655, 3654
3104, 3630, 3631, 3656, 3655
3105, 3631, 3632, 3657, 3656
3106, 3632, 3633, 3658, 3657
3107, 3633, 3634, 3659, 3658
3108, 3634,  860,  861, 3659
3109,  801, 3635, 3660,  802
3110, 3635, 3636, 3661, 3660
3111, 3636, 3637, 3662, 3661
3112, 3637, 3638, 3663, 3662
3113, 3638, 3639, 3664, 3663
3114, 3639, 3640, 3665, 3664
3115, 3640, 3641, 3666, 3665
3116, 3641, 3642, 3667, 3666
3117, 3642, 3643, 3668, 3667
3118, 3643, 3644, 3669, 3668
3119, 3644, 3645, 3670, 3669
3120, 3645, 3646, 3671, 3670
3121, 3646, 3647, 3672, 3671
3122, 3647, 3648, 3673, 3672
3123, 3648, 3649, 3674, 3673
3124, 3649, 3650, 3675, 3674
3125, 3650, 3651, 3676, 3675
3126, 3651, 3652, 3677, 3676
3127, 3652, 3653, 3678, 3677
3128, 3653, 3654, 3679, 3678
3129, 3654, 3655, 3680, 3679
3130, 3655, 3656, 3681, 3680
3131, 3656, 3657, 3682, 3681
3132, 3657, 3658, 3683, 3682
3133, 3658, 3659, 3684, 3683
3134, 3659,  861,  862, 3684
3135,  802, 3660, 3685,  803
3136, 3660, 3661, 3686, 3685
3137, 3661, 3662, 3687, 3686
3138, 3662, 3663, 3688, 3687
3139, 3663, 3664, 3689, 3688
3140, 3664, 3665, 3690, 3689
3141, 3665, 3666, 3691, 3690
3142, 3666, 3667, 3692, 3691
3143, 3667, 3668, 3693, 3692
3144, 3668, 3669, 3694, 3693
3145, 3669, 3670, 3695, 3694
3146, 3670, 3671, 3696, 3695
3147, 3671, 3672, 3697, 3696
3148, 3672, 3673, 3698, 3697
3149, 3673, 3674, 3699, 3698
3150, 3674, 3675, 3700, 3699
3151, 3675, 3676, 3701, 3700
3152, 3676, 3677, 3702, 3701
3153, 3677, 3678, 3703, 3702
3154, 3678, 3679, 3704, 3703
3155, 3679, 3680, 3705, 3704
3156, 3680, 3681, 3706, 3705
3157, 3681, 3682, 3707, 3706
3158, 3682, 3683, 3708, 3707
3159, 3683, 3684, 3709, 3708
3160, 3684,  862,  863, 3709
3161,  803, 3685,   59,   60
3162, 3685, 3686,   58,   59
3163, 3686, 3687,   57,   58
3164, 3687, 3688,   56,   57
3165, 3688, 3689,   55,   56
3166, 3689, 3690,   54,   55
3167, 3690, 3691,   53,   54
3168, 3691, 3692,   52,   53
3169, 3692, 3693,   51,   52
3170, 3693, 3694,   50,   51
3171, 3694, 3695,   49,   50
3172, 3695, 3696,   48,   49
3173, 3696, 3697,   47,   48
3174, 3697, 3698,   46,   47
3175, 3698, 3699,   45,   46
3176, 3699, 3700,   44,   45
3177, 3700, 3701,   43,   44
3178, 3701, 3702,   42,   43
3179, 3702, 3703,   41,   42
3180, 3703, 3704,   40,   41
3181, 3704, 3705,   39,   40
3182, 3705, 3706,   38,   39
3183, 3706, 3707,   37,   38
3184, 3707, 3708,   36,   37
3185, 3708, 3709,   35,   36
3186, 3709,  863,   34,   35
3187,  826,  825, 3772, 3724
3188,  825,  336,  335, 3772
3189, 3724, 3772, 3773, 3723
3190, 3772,  335,  334, 3773
3191, 3723, 3773, 3774, 3722
3192, 3773,  334,  333, 3774
3193, 3722, 3774, 3775, 3721
3194, 3774,  333,  332, 3775
3195, 3721, 3775, 3776, 3720
3196, 3775,  332,  331, 3776
3197, 3720, 3776, 3777, 3719
3198, 3776,  331,  330, 3777
3199, 3719, 3777, 3778, 3718
3200, 3777,  330,  329, 3778
3201, 3718, 3778, 3779, 3717
3202, 3778,  329,  328, 3779
3203, 3717, 3779, 3780, 3716
3204, 3779,  328,  327, 3780
3205, 3716, 3780, 3781, 3715
3206, 3780,  327,  326, 3781
3207, 3715, 3781, 3782, 3714
3208, 3781,  326,  325, 3782
3209, 3714, 3782, 3783, 3713
3210, 3782,  325,  324, 3783
3211, 3713, 3783, 3784, 3712
3212, 3783,  324,  323, 3784
3213, 3712, 3784, 3711, 3710
3214, 3784,  323,  322, 3711
3215,  322,  321,  814, 3711
3216, 3711,  814,  813, 3710
3217,  813,  812, 3733, 3710
3218,  812,  811, 3732, 3733
3219,  811,  810, 3731, 3732
3220,  810,  809, 3730, 3731
3221,  809,  808, 3729, 3730
3222,  808,  807, 3728, 3729
3223,  807,  806, 3727, 3728
3224,  806,  805, 3726, 3727
3225,  805,  804, 3725, 3726
3226,  804,  225,  226, 3725
3227,  226,  227, 3785, 3725
3228,  227,  228, 3786, 3785
3229,  228,  229, 3787, 3786
3230,  229,  230, 3788, 3787
3231,  230,  231, 3789, 3788
3232,  231,  232, 3790, 3789
3233,  232,  233, 3791, 3790
3234,  233,  234, 3792, 3791
3235,  234,  235, 3793, 3792
3236,  235,  236, 3794, 3793
3237,  236,  237, 3795, 3794
3238,  237,  238, 3796, 3795
3239,  238,  239, 3797, 3796
3240,  239,  240, 3798, 3797
3241,  240,  241, 3799, 3798
3242,  241,  242, 3800, 3799
3243,  242,  243, 3801, 3800
3244,  243,  244, 3802, 3801
3245,  244,  245, 3803, 3802
3246,  245,  246, 3804, 3803
3247,  246,  247, 3805, 3804
3248,  247,  248, 3806, 3805
3249,  248,  249, 3807, 3806
3250,  249,  250, 3808, 3807
3251,  250,  251, 3809, 3808
3252,  251,  252, 3810, 3809
3253,  252,  253, 3811, 3810
3254,  253,  254, 3812, 3811
3255,  254,  255, 3813, 3812
3256,  255,  256, 3814, 3813
3257,  256,  257, 3815, 3814
3258,  257,  258, 3816, 3815
3259,  258,  259, 3817, 3816
3260,  259,  260, 3818, 3817
3261,  260,  261, 3819, 3818
3262,  261,  262, 3820, 3819
3263,  262,  263, 3821, 3820
3264,  263,  264, 3822, 3821
3265,  264,    6,   11, 3822
3266, 3725, 3785, 3823, 3726
3267, 3785, 3786, 3824, 3823
3268, 3786, 3787, 3825, 3824
3269, 3787, 3788, 3826, 3825
3270, 3788, 3789, 3827, 3826
3271, 3789, 3790, 3828, 3827
3272, 3790, 3791, 3829, 3828
3273, 3791, 3792, 3830, 3829
3274, 3792, 3793, 3831, 3830
3275, 3793, 3794, 3832, 3831
3276, 3794, 3795, 3833, 3832
3277, 3795, 3796, 3834, 3833
3278, 3796, 3797, 3835, 3834
3279, 3797, 3798, 3836, 3835
3280, 3798, 3799, 3837, 3836
3281, 3799, 3800, 3838, 3837
3282, 3800, 3801, 3839, 3838
3283, 3801, 3802, 3840, 3839
3284, 3802, 3803, 3841, 3840
3285, 3803, 3804, 3842, 3841
3286, 3804, 3805, 3843, 3842
3287, 3805, 3806, 3844, 3843
3288, 3806, 3807, 3845, 3844
3289, 3807, 3808, 3846, 3845
3290, 3808, 3809, 3847, 3846
3291, 3809, 3810, 3848, 3847
3292, 3810, 3811, 3849, 3848
3293, 3811, 3812, 3850, 3849
3294, 3812, 3813, 3851, 3850
3295, 3813, 3814, 3852, 3851
3296, 3814, 3815, 3853, 3852
3297, 3815, 3816, 3854, 3853
3298, 3816, 3817, 3855, 3854
3299, 3817, 3818, 3856, 3855
3300, 3818, 3819, 3857, 3856
3301, 3819, 3820, 3858, 3857
3302, 3820, 3821, 3859, 3858
3303, 3821, 3822, 3860, 3859
3304, 3822,   11,   12, 3860
3305, 3726, 3823, 3861, 3727
3306, 3823, 3824, 3862, 3861
3307, 3824, 3825, 3863, 3862
3308, 3825, 3826, 3864, 3863
3309, 3826, 3827, 3865, 3864
3310, 3827, 3828, 3866, 3865
3311, 3828, 3829, 3867, 3866
3312, 3829, 3830, 3868, 3867
3313, 3830, 3831, 3869, 3868
3314, 3831, 3832, 3870, 3869
3315, 3832, 3833, 3871, 3870
3316, 3833, 3834, 3872, 3871
3317, 3834, 3835, 3873, 3872
3318, 3835, 3836, 3874, 3873
3319, 3836, 3837, 3875, 3874
3320, 3837, 3838, 3876, 3875
3321, 3838, 3839, 3877, 3876
3322, 3839, 3840, 3878, 3877
3323, 3840, 3841, 3879, 3878
3324, 3841, 3842, 3880, 3879
3325, 3842, 3843, 3881, 3880
3326, 3843, 3844, 3882, 3881
3327, 3844, 3845, 3883, 3882
3328, 3845, 3846, 3884, 3883
3329, 3846, 3847, 3885, 3884
3330, 3847, 3848, 3886, 3885
3331, 3848, 3849, 3887, 3886
3332, 3849, 3850, 3888, 3887
3333, 3850, 3851, 3889, 3888
3334, 3851, 3852, 3890, 3889
3335, 3852, 3853, 3891, 3890
3336, 3853, 3854, 3892, 3891
3337, 3854, 3855, 3893, 3892
3338, 3855, 3856, 3894, 3893
3339, 3856, 3857, 3895, 3894
3340, 3857, 3858, 3896, 3895
3341, 3858, 3859, 3897, 3896
3342, 3859, 3860, 3898, 3897
3343, 3860,   12,   13, 3898
3344, 3727, 3861, 3899, 3728
3345, 3861, 3862, 3900, 3899
3346, 3862, 3863, 3901, 3900
3347, 3863, 3864, 3902, 3901
3348, 3864, 3865, 3903, 3902
3349, 3865, 3866, 3904, 3903
3350, 3866, 3867, 3905, 3904
3351, 3867, 3868, 3906, 3905
3352, 3868, 3869, 3907, 3906
3353, 3869, 3870, 3908, 3907
3354, 3870, 3871, 3909, 3908
3355, 3871, 3872, 3910, 3909
3356, 3872, 3873, 3911, 3910
3357, 3873, 3874, 3912, 3911
3358, 3874, 3875, 3913, 3912
3359, 3875, 3876, 3914, 3913
3360, 3876, 3877, 3915, 3914
3361, 3877, 3878, 3916, 3915
3362, 3878, 3879, 3917, 3916
3363, 3879, 3880, 3918, 3917
3364, 3880, 3881, 3919, 3918
3365, 3881, 3882, 3920, 3919
3366, 3882, 3883, 3921, 3920
3367, 3883, 3884, 3922, 3921
3368, 3884, 3885, 3923, 3922
3369, 3885, 3886, 3924, 3923
3370, 3886, 3887, 3925, 3924
3371, 3887, 3888, 3926, 3925
3372, 3888, 3889, 3927, 3926
3373, 3889, 3890, 3928, 3927
3374, 3890, 3891, 3929, 3928
3375, 3891, 3892, 3930, 3929
3376, 3892, 3893, 3931, 3930
3377, 3893, 3894, 3932, 3931
3378, 3894, 3895, 3933, 3932
3379, 3895, 3896, 3934, 3933
3380, 3896, 3897, 3935, 3934
3381, 3897, 3898, 3936, 3935
3382, 3898,   13,   14, 3936
3383, 3728, 3899, 3937, 3729
3384, 3899, 3900, 3938, 3937
3385, 3900, 3901, 3939, 3938
3386, 3901, 3902, 3940, 3939
3387, 3902, 3903, 3941, 3940
3388, 3903, 3904, 3942, 3941
3389, 3904, 3905, 3943, 3942
3390, 3905, 3906, 3944, 3943
3391, 3906, 3907, 3945, 3944
3392, 3907, 3908, 3946, 3945
3393, 3908, 3909, 3947, 3946
3394, 3909, 3910, 3948, 3947
3395, 3910, 3911, 3949, 3948
3396, 3911, 3912, 3950, 3949
3397, 3912, 3913, 3951, 3950
3398, 3913, 3914, 3952, 3951
3399, 3914, 3915, 3953, 3952
3400, 3915, 3916, 3954, 3953
3401, 3916, 3917, 3955, 3954
3402, 3917, 3918, 3956, 3955
3403, 3918, 3919, 3957, 3956
3404, 3919, 3920, 3958, 3957
3405, 3920, 3921, 3959, 3958
3406, 3921, 3922, 3960, 3959
3407, 3922, 3923, 3961, 3960
3408, 3923, 3924, 3962, 3961
3409, 3924, 3925, 3963, 3962
3410, 3925, 3926, 3964, 3963
3411, 3926, 3927, 3965, 3964
3412, 3927, 3928, 3966, 3965
3413, 3928, 3929, 3967, 3966
3414, 3929, 3930, 3968, 3967
3415, 3930, 3931, 3969, 3968
3416, 3931, 3932, 3970, 3969
3417, 3932, 3933, 3971, 3970
3418, 3933, 3934, 3972, 3971
3419, 3934, 3935, 3973, 3972
3420, 3935, 3936, 3974, 3973
3421, 3936,   14,   15, 3974
3422, 3729, 3937, 3975, 3730
3423, 3937, 3938, 3976, 3975
3424, 3938, 3939, 3977, 3976
3425, 3939, 3940, 3978, 3977
3426, 3940, 3941, 3979, 3978
3427, 3941, 3942, 3980, 3979
3428, 3942, 3943, 3981, 3980
3429, 3943, 3944, 3982, 3981
3430, 3944, 3945, 3983, 3982
3431, 3945, 3946, 3984, 3983
3432, 3946, 3947, 3985, 3984
3433, 3947, 3948, 3986, 3985
3434, 3948, 3949, 3987, 3986
3435, 3949, 3950, 3988, 3987
3436, 3950, 3951, 3989, 3988
3437, 3951, 3952, 3990, 3989
3438, 3952, 3953, 3991, 3990
3439, 3953, 3954, 3992, 3991
3440, 3954, 3955, 3993, 3992
3441, 3955, 3956, 3994, 3993
3442, 3956, 3957, 3995, 3994
3443, 3957, 3958, 3996, 3995
3444, 3958, 3959, 3997, 3996
3445, 3959, 3960, 3998, 3997
3446, 3960, 3961, 3999, 3998
3447, 3961, 3962, 4000, 3999
3448, 3962, 3963, 4001, 4000
3449, 3963, 3964, 4002, 4001
3450, 3964, 3965, 4003, 4002
3451, 3965, 3966, 4004, 4003
3452, 3966, 3967, 4005, 4004
3453, 3967, 3968, 4006, 4005
3454, 3968, 3969, 4007, 4006
3455, 3969, 3970, 4008, 4007
3456, 3970, 3971, 4009, 4008
3457, 3971, 3972, 4010, 4009
3458, 3972, 3973, 4011, 4010
3459, 3973, 3974, 4012, 4011
3460, 3974,   15,   16, 4012
3461, 3730, 3975, 4013, 3731
3462, 3975, 3976, 4014, 4013
3463, 3976, 3977, 4015, 4014
3464, 3977, 3978, 4016, 4015
3465, 3978, 3979, 4017, 4016
3466, 3979, 3980, 4018, 4017
3467, 3980, 3981, 4019, 4018
3468, 3981, 3982, 4020, 4019
3469, 3982, 3983, 4021, 4020
3470, 3983, 3984, 4022, 4021
3471, 3984, 3985, 4023, 4022
3472, 3985, 3986, 4024, 4023
3473, 3986, 3987, 4025, 4024
3474, 3987, 3988, 4026, 4025
3475, 3988, 3989, 4027, 4026
3476, 3989, 3990, 4028, 4027
3477, 3990, 3991, 4029, 4028
3478, 3991, 3992, 4030, 4029
3479, 3992, 3993, 4031, 4030
3480, 3993, 3994, 4032, 4031
3481, 3994, 3995, 4033, 4032
3482, 3995, 3996, 4034, 4033
3483, 3996, 3997, 4035, 4034
3484, 3997, 3998, 4036, 4035
3485, 3998, 3999, 4037, 4036
3486, 3999, 4000, 4038, 4037
3487, 4000, 4001, 4039, 4038
3488, 4001, 4002, 4040, 4039
3489, 4002, 4003, 4041, 4040
3490, 4003, 4004, 4042, 4041
3491, 4004, 4005, 4043, 4042
3492, 4005, 4006, 4044, 4043
3493, 4006, 4007, 4045, 4044
3494, 4007, 4008, 4046, 4045
3495, 4008, 4009, 4047, 4046
3496, 4009, 4010, 4048, 4047
3497, 4010, 4011, 4049, 4048
3498, 4011, 4012, 4050, 4049
3499, 4012,   16,   17, 4050
3500, 3731, 4013, 4051, 3732
3501, 4013, 4014, 4052, 4051
3502, 4014, 4015, 4053, 4052
3503, 4015, 4016, 4054, 4053
3504, 4016, 4017, 4055, 4054
3505, 4017, 4018, 4056, 4055
3506, 4018, 4019, 4057, 4056
3507, 4019, 4020, 4058, 4057
3508, 4020, 4021, 4059, 4058
3509, 4021, 4022, 4060, 4059
3510, 4022, 4023, 4061, 4060
3511, 4023, 4024, 4062, 4061
3512, 4024, 4025, 4063, 4062
3513, 4025, 4026, 4064, 4063
3514, 4026, 4027, 4065, 4064
3515, 4027, 4028, 4066, 4065
3516, 4028, 4029, 4067, 4066
3517, 4029, 4030, 4068, 4067
3518, 4030, 4031, 4069, 4068
3519, 4031, 4032, 4070, 4069
3520, 4032, 4033, 4071, 4070
3521, 4033, 4034, 4072, 4071
3522, 4034, 4035, 4073, 4072
3523, 4035, 4036, 4074, 4073
3524, 4036, 4037, 4075, 4074
3525, 4037, 4038, 4076, 4075
3526, 4038, 4039, 4077, 4076
3527, 4039, 4040, 4078, 4077
3528, 4040, 4041, 4079, 4078
3529, 4041, 4042, 4080, 4079
3530, 4042, 4043, 4081, 4080
3531, 4043, 4044, 4082, 4081
3532, 4044, 4045, 4083, 4082
3533, 4045, 4046, 4084, 4083
3534, 4046, 4047, 4085, 4084
3535, 4047, 4048, 4086, 4085
3536, 4048, 4049, 4087, 4086
3537, 4049, 4050, 4088, 4087
3538, 4050,   17,   18, 4088
3539, 3732, 4051, 4089, 3733
3540, 4051, 4052, 4090, 4089
3541, 4052, 4053, 4091, 4090
3542, 4053, 4054, 4092, 4091
3543, 4054, 4055, 4093, 4092
3544, 4055, 4056, 4094, 4093
3545, 4056, 4057, 4095, 4094
3546, 4057, 4058, 4096, 4095
3547, 4058, 4059, 4097, 4096
3548, 4059, 4060, 4098, 4097
3549, 4060, 4061, 4099, 4098
3550, 4061, 4062, 4100, 4099
3551, 4062, 4063, 4101, 4100
3552, 4063, 4064, 4102, 4101
3553, 4064, 4065, 4103, 4102
3554, 4065, 4066, 4104, 4103
3555, 4066, 4067, 4105, 4104
3556, 4067, 4068, 4106, 4105
3557, 4068, 4069, 4107, 4106
3558, 4069, 4070, 4108, 4107
3559, 4070, 4071, 4109, 4108
3560, 4071, 4072, 4110, 4109
3561, 4072, 4073, 4111, 4110
3562, 4073, 4074, 4112, 4111
3563, 4074, 4075, 4113, 4112
3564, 4075, 4076, 4114, 4113
3565, 4076, 4077, 4115, 4114
3566, 4077, 4078, 4116, 4115
3567, 4078, 4079, 4117, 4116
3568, 4079, 4080, 4118, 4117
3569, 4080, 4081, 4119, 4118
3570, 4081, 4082, 4120, 4119
3571, 4082, 4083, 4121, 4120
3572, 4083, 4084, 4122, 4121
3573, 4084, 4085, 4123, 4122
3574, 4085, 4086, 4124, 4123
3575, 4086, 4087, 4125, 4124
3576, 4087, 4088, 4126, 4125
3577, 4088,   18,   19, 4126
3578, 3733, 4089, 3771, 3710
3579, 4089, 4090, 3770, 3771
3580, 4090, 4091, 3769, 3770
3581, 4091, 4092, 3768, 3769
3582, 4092, 4093, 3767, 3768
3583, 4093, 4094, 3766, 3767
3584, 4094, 4095, 3765, 3766
3585, 4095, 4096, 3764, 3765
3586, 4096, 4097, 3763, 3764
3587, 4097, 4098, 3762, 3763
3588, 4098, 4099, 3761, 3762
3589, 4099, 4100, 3760, 3761
3590, 4100, 4101, 3759, 3760
3591, 4101, 4102, 3758, 3759
3592, 4102, 4103, 3757, 3758
3593, 4103, 4104, 3756, 3757
3594, 4104, 4105, 3755, 3756
3595, 4105, 4106, 3754, 3755
3596, 4106, 4107, 3753, 3754
3597, 4107, 4108, 3752, 3753
3598, 4108, 4109, 3751, 3752
3599, 4109, 4110, 3750, 3751
3600, 4110, 4111, 3749, 3750
3601, 4111, 4112, 3748, 3749
3602, 4112, 4113, 3747, 3748
3603, 4113, 4114, 3746, 3747
3604, 4114, 4115, 3745, 3746
3605, 4115, 4116, 3744, 3745
3606, 4116, 4117, 3743, 3744
3607, 4117, 4118, 3742, 3743
3608, 4118, 4119, 3741, 3742
3609, 4119, 4120, 3740, 3741
3610, 4120, 4121, 3739, 3740
3611, 4121, 4122, 3738, 3739
3612, 4122, 4123, 3737, 3738
3613, 4123, 4124, 3736, 3737
3614, 4124, 4125, 3735, 3736
3615, 4125, 4126, 3734, 3735
3616, 4126,   19,   20, 3734
3617,   20,   21, 4127, 3734
3618,   21,   22, 4128, 4127
3619,   22,   23, 4129, 4128
3620,   23,   24, 4130, 4129
3621,   24,   25, 4131, 4130
3622,   25,   26, 4132, 4131
3623,   26,   27, 4133, 4132
3624,   27,   28, 4134, 4133
3625,   28,   29, 4135, 4134
3626,   29,   30, 4136, 4135
3627,   30,   31, 4137, 4136
3628,   31,   32, 4138, 4137
3629,   32,   33, 4139, 4138
3630,   33,   34,  863, 4139
3631, 3734, 4127, 4140, 3735
3632, 4127, 4128, 4141, 4140
3633, 4128, 4129, 4142, 4141
3634, 4129, 4130, 4143, 4142
3635, 4130, 4131, 4144, 4143
3636, 4131, 4132, 4145, 4144
3637, 4132, 4133, 4146, 4145
3638, 4133, 4134, 4147, 4146
3639, 4134, 4135, 4148, 4147
3640, 4135, 4136, 4149, 4148
3641, 4136, 4137, 4150, 4149
3642, 4137, 4138, 4151, 4150
3643, 4138, 4139, 4152, 4151
3644, 4139,  863,  862, 4152
3645, 3735, 4140, 4153, 3736
3646, 4140, 4141, 4154, 4153
3647, 4141, 4142, 4155, 4154
3648, 4142, 4143, 4156, 4155
3649, 4143, 4144, 4157, 4156
3650, 4144, 4145, 4158, 4157
3651, 4145, 4146, 4159, 4158
3652, 4146, 4147, 4160, 4159
3653, 4147, 4148, 4161, 4160
3654, 4148, 4149, 4162, 4161
3655, 4149, 4150, 4163, 4162
3656, 4150, 4151, 4164, 4163
3657, 4151, 4152, 4165, 4164
3658, 4152,  862,  861, 4165
3659, 3736, 4153, 4166, 3737
3660, 4153, 4154, 4167, 4166
3661, 4154, 4155, 4168, 4167
3662, 4155, 4156, 4169, 4168
3663, 4156, 4157, 4170, 4169
3664, 4157, 4158, 4171, 4170
3665, 4158, 4159, 4172, 4171
3666, 4159, 4160, 4173, 4172
3667, 4160, 4161, 4174, 4173
3668, 4161, 4162, 4175, 4174
3669, 4162, 4163, 4176, 4175
3670, 4163, 4164, 4177, 4176
3671, 4164, 4165, 4178, 4177
3672, 4165,  861,  860, 4178
3673, 3737, 4166, 4179, 3738
3674, 4166, 4167, 4180, 4179
3675, 4167, 4168, 4181, 4180
3676, 4168, 4169, 4182, 4181
3677, 4169, 4170, 4183, 4182
3678, 4170, 4171, 4184, 4183
3679, 4171, 4172, 4185, 4184
3680, 4172, 4173, 4186, 4185
3681, 4173, 4174, 4187, 4186
3682, 4174, 4175, 4188, 4187
3683, 4175, 4176, 4189, 4188
3684, 4176, 4177, 4190, 4189
3685, 4177, 4178, 4191, 4190
3686, 4178,  860,  859, 4191
3687, 3738, 4179, 4192, 3739
3688, 4179, 4180, 4193, 4192
3689, 4180, 4181, 4194, 4193
3690, 4181, 4182, 4195, 4194
3691, 4182, 4183, 4196, 4195
3692, 4183, 4184, 4197, 4196
3693, 4184, 4185, 4198, 4197
3694, 4185, 4186, 4199, 4198
3695, 4186, 4187, 4200, 4199
3696, 4187, 4188, 4201, 4200
3697, 4188, 4189, 4202, 4201
3698, 4189, 4190, 4203, 4202
3699, 4190, 4191, 4204, 4203
3700, 4191,  859,  858, 4204
3701, 3739, 4192, 4205, 3740
3702, 4192, 4193, 4206, 4205
3703, 4193, 4194, 4207, 4206
3704, 4194, 4195, 4208, 4207
3705, 4195, 4196, 4209, 4208
3706, 4196, 4197, 4210, 4209
3707, 4197, 4198, 4211, 4210
3708, 4198, 4199, 4212, 4211
3709, 4199, 4200, 4213, 4212
3710, 4200, 4201, 4214, 4213
3711, 4201, 4202, 4215, 4214
3712, 4202, 4203, 4216, 4215
3713, 4203, 4204, 4217, 4216
3714, 4204,  858,  857, 4217
3715, 3740, 4205, 4218, 3741
3716, 4205, 4206, 4219, 4218
3717, 4206, 4207, 4220, 4219
3718, 4207, 4208, 4221, 4220
3719, 4208, 4209, 4222, 4221
3720, 4209, 4210, 4223, 4222
3721, 4210, 4211, 4224, 4223
3722, 4211, 4212, 4225, 4224
3723, 4212, 4213, 4226, 4225
3724, 4213, 4214, 4227, 4226
3725, 4214, 4215, 4228, 4227
3726, 4215, 4216, 4229, 4228
3727, 4216, 4217, 4230, 4229
3728, 4217,  857,  856, 4230
3729, 3741, 4218, 4231, 3742
3730, 4218, 4219, 4232, 4231
3731, 4219, 4220, 4233, 4232
3732, 4220, 4221, 4234, 4233
3733, 4221, 4222, 4235, 4234
3734, 4222, 4223, 4236, 4235
3735, 4223, 4224, 4237, 4236
3736, 4224, 4225, 4238, 4237
3737, 4225, 4226, 4239, 4238
3738, 4226, 4227, 4240, 4239
3739, 4227, 4228, 4241, 4240
3740, 4228, 4229, 4242, 4241
3741, 4229, 4230, 4243, 4242
3742, 4230,  856,  855, 4243
3743, 3742, 4231, 4244, 3743
3744, 4231, 4232, 4245, 4244
3745, 4232, 4233, 4246, 4245
3746, 4233, 4234, 4247, 4246
3747, 4234, 4235, 4248, 4247
3748, 4235, 4236, 4249, 4248
3749, 4236, 4237, 4250, 4249
3750, 4237, 4238, 4251, 4250
3751, 4238, 4239, 4252, 4251
3752, 4239, 4240, 4253, 4252
3753, 4240, 4241, 4254, 4253
3754, 4241, 4242, 4255, 4254
3755, 4242, 4243, 4256, 4255
3756, 4243,  855,  854, 4256
3757, 3743, 4244, 4257, 3744
3758, 4244, 4245, 4258, 4257
3759, 4245, 4246, 4259, 4258
3760, 4246, 4247, 4260, 4259
3761, 4247, 4248, 4261, 4260
3762, 4248, 4249, 4262, 4261
3763, 4249, 4250, 4263, 4262
3764, 4250, 4251, 4264, 4263
3765, 4251, 4252, 4265, 4264
3766, 4252, 4253, 4266, 4265
3767, 4253, 4254, 4267, 4266
3768, 4254, 4255, 4268, 4267
3769, 4255, 4256, 4269, 4268
3770, 4256,  854,  853, 4269
3771, 3744, 4257, 4270, 3745
3772, 4257, 4258, 4271, 4270
3773, 4258, 4259, 4272, 4271
3774, 4259, 4260, 4273, 4272
3775, 4260, 4261, 4274, 4273
3776, 4261, 4262, 4275, 4274
3777, 4262, 4263, 4276, 4275
3778, 4263, 4264, 4277, 4276
3779, 4264, 4265, 4278, 4277
3780, 4265, 4266, 4279, 4278
3781, 4266, 4267, 4280, 4279
3782, 4267, 4268, 4281, 4280
3783, 4268, 4269, 4282, 4281
3784, 4269,  853,  852, 4282
3785, 3745, 4270, 4283, 3746
3786, 4270, 4271, 4284, 4283
3787, 4271, 4272, 4285, 4284
3788, 4272, 4273, 4286, 4285
3789, 4273, 4274, 4287, 4286
3790, 4274, 4275, 4288, 4287
3791, 4275, 4276, 4289, 4288
3792, 4276, 4277, 4290, 4289
3793, 4277, 4278, 4291, 4290
3794, 4278, 4279, 4292, 4291
3795, 4279, 4280, 4293, 4292
3796, 4280, 4281, 4294, 4293
3797, 4281, 4282, 4295, 4294
3798, 4282,  852,  851, 4295
3799, 3746, 4283, 4296, 3747
3800, 4283, 4284, 4297, 4296
3801, 4284, 4285, 4298, 4297
3802, 4285, 4286, 4299, 4298
3803, 4286, 4287, 4300, 4299
3804, 4287, 4288, 4301, 4300
3805, 4288, 4289, 4302, 4301
3806, 4289, 4290, 4303, 4302
3807, 4290, 4291, 4304, 4303
3808, 4291, 4292, 4305, 4304
3809, 4292, 4293, 4306, 4305
3810, 4293, 4294, 4307, 4306
3811, 4294, 4295, 4308, 4307
3812, 4295,  851,  850, 4308
3813, 3747, 4296, 4309, 3748
3814, 4296, 4297, 4310, 4309
3815, 4297, 4298, 4311, 4310
3816, 4298, 4299, 4312, 4311
3817, 4299, 4300, 4313, 4312
3818, 4300, 4301, 4314, 4313
3819, 4301, 4302, 4315, 4314
3820, 4302, 4303, 4316, 4315
3821, 4303, 4304, 4317, 4316
3822, 4304, 4305, 4318, 4317
3823, 4305, 4306, 4319, 4318
3824, 4306, 4307, 4320, 4319
3825, 4307, 4308, 4321, 4320
3826, 4308,  850,  849, 4321
3827, 3748, 4309, 4322, 3749
3828, 4309, 4310, 4323, 4322
3829, 4310, 4311, 4324, 4323
3830, 4311, 4312, 4325, 4324
3831, 4312, 4313, 4326, 4325
3832, 4313, 4314, 4327, 4326
3833, 4314, 4315, 4328, 4327
3834, 4315, 4316, 4329, 4328
3835, 4316, 4317, 4330, 4329
3836, 4317, 4318, 4331, 4330
3837, 4318, 4319, 4332, 4331
3838, 4319, 4320, 4333, 4332
3839, 4320, 4321, 4334, 4333
3840, 4321,  849,  848, 4334
3841, 3749, 4322, 4335, 3750
3842, 4322, 4323, 4336, 4335
3843, 4323, 4324, 4337, 4336
3844, 4324, 4325, 4338, 4337
3845, 4325, 4326, 4339, 4338
3846, 4326, 4327, 4340, 4339
3847, 4327, 4328, 4341, 4340
3848, 4328, 4329, 4342, 4341
3849, 4329, 4330, 4343, 4342
3850, 4330, 4331, 4344, 4343
3851, 4331, 4332, 4345, 4344
3852, 4332, 4333, 4346, 4345
3853, 4333, 4334, 4347, 4346
3854, 4334,  848,  847, 4347
3855, 3750, 4335, 4348, 3751
3856, 4335, 4336, 4349, 4348
3857, 4336, 4337, 4350, 4349
3858, 4337, 4338, 4351, 4350
3859, 4338, 4339, 4352, 4351
3860, 4339, 4340, 4353, 4352
3861, 4340, 4341, 4354, 4353
3862, 4341, 4342, 4355, 4354
3863, 4342, 4343, 4356, 4355
3864, 4343, 4344, 4357, 4356
3865, 4344, 4345, 4358, 4357
3866, 4345, 4346, 4359, 4358
3867, 4346, 4347, 4360, 4359
3868, 4347,  847,  846, 4360
3869, 3751, 4348, 4361, 3752
3870, 4348, 4349, 4362, 4361
3871, 4349, 4350, 4363, 4362
3872, 4350, 4351, 4364, 4363
3873, 4351, 4352, 4365, 4364
3874, 4352, 4353, 4366, 4365
3875, 4353, 4354, 4367, 4366
3876, 4354, 4355, 4368, 4367
3877, 4355, 4356, 4369, 4368
3878, 4356, 4357, 4370, 4369
3879, 4357, 4358, 4371, 4370
3880, 4358, 4359, 4372, 4371
3881, 4359, 4360, 4373, 4372
3882, 4360,  846,  845, 4373
3883, 3752, 4361, 4374, 3753
3884, 4361, 4362, 4375, 4374
3885, 4362, 4363, 4376, 4375
3886, 4363, 4364, 4377, 4376
3887, 4364, 4365, 4378, 4377
3888, 4365, 4366, 4379, 4378
3889, 4366, 4367, 4380, 4379
3890, 4367, 4368, 4381, 4380
3891, 4368, 4369, 4382, 4381
3892, 4369, 4370, 4383, 4382
3893, 4370, 4371, 4384, 4383
3894, 4371, 4372, 4385, 4384
3895, 4372, 4373, 4386, 4385
3896, 4373,  845,  844, 4386
3897, 3753, 4374, 4387, 3754
3898, 4374, 4375, 4388, 4387
3899, 4375, 4376, 4389, 4388
3900, 4376, 4377, 4390, 4389
3901, 4377, 4378, 4391, 4390
3902, 4378, 4379, 4392, 4391
3903, 4379, 4380, 4393, 4392
3904, 4380, 4381, 4394, 4393
3905, 4381, 4382, 4395, 4394
3906, 4382, 4383, 4396, 4395
3907, 4383, 4384, 4397, 4396
3908, 4384, 4385, 4398, 4397
3909, 4385, 4386, 4399, 4398
3910, 4386,  844,  843, 4399
3911, 3754, 4387, 4400, 3755
3912, 4387, 4388, 4401, 4400
3913, 4388, 4389, 4402, 4401
3914, 4389, 4390, 4403, 4402
3915, 4390, 4391, 4404, 4403
3916, 4391, 4392, 4405, 4404
3917, 4392, 4393, 4406, 4405
3918, 4393, 4394, 4407, 4406
3919, 4394, 4395, 4408, 4407
3920, 4395, 4396, 4409, 4408
3921, 4396, 4397, 4410, 4409
3922, 4397, 4398, 4411, 4410
3923, 4398, 4399, 4412, 4411
3924, 4399,  843,  842, 4412
3925, 3755, 4400, 4413, 3756
3926, 4400, 4401, 4414, 4413
3927, 4401, 4402, 4415, 4414
3928, 4402, 4403, 4416, 4415
3929, 4403, 4404, 4417, 4416
3930, 4404, 4405, 4418, 4417
3931, 4405, 4406, 4419, 4418
3932, 4406, 4407, 4420, 4419
3933, 4407, 4408, 4421, 4420
3934, 4408, 4409, 4422, 4421
3935, 4409, 4410, 4423, 4422
3936, 4410, 4411, 4424, 4423
3937, 4411, 4412, 4425, 4424
3938, 4412,  842,  841, 4425
3939, 3756, 4413, 4426, 3757
3940, 4413, 4414, 4427, 4426
3941, 4414, 4415, 4428, 4427
3942, 4415, 4416, 4429, 4428
3943, 4416, 4417, 4430, 4429
3944, 4417, 4418, 4431, 4430
3945, 4418, 4419, 4432, 4431
3946, 4419, 4420, 4433, 4432
3947, 4420, 4421, 4434, 4433
3948, 4421, 4422, 4435, 4434
3949, 4422, 4423, 4436, 4435
3950, 4423, 4424, 4437, 4436
3951, 4424, 4425, 4438, 4437
3952, 4425,  841,  638, 4438
3953, 3757, 4426, 4439, 3758
3954, 4426, 4427, 4440, 4439
3955, 4427, 4428, 4441, 4440
3956, 4428, 4429, 4442, 4441
3957, 4429, 4430, 4443, 4442
3958, 4430, 4431, 4444, 4443
3959, 4431, 4432, 4445, 4444
3960, 4432, 4433, 4446, 4445
3961, 4433, 4434, 4447, 4446
3962, 4434, 4435, 4448, 4447
3963, 4435, 4436, 4449, 4448
3964, 4436, 4437, 4450, 4449
3965, 4437, 4438, 4451, 4450
3966, 4438,  638,  840, 4451
3967, 3758, 4439, 4452, 3759
3968, 4439, 4440, 4453, 4452
3969, 4440, 4441, 4454, 4453
3970, 4441, 4442, 4455, 4454
3971, 4442, 4443, 4456, 4455
3972, 4443, 4444, 4457, 4456
3973, 4444, 4445, 4458, 4457
3974, 4445, 4446, 4459, 4458
3975, 4446, 4447, 4460, 4459
3976, 4447, 4448, 4461, 4460
3977, 4448, 4449, 4462, 4461
3978, 4449, 4450, 4463, 4462
3979, 4450, 4451, 4464, 4463
3980, 4451,  840,  839, 4464
3981, 3759, 4452, 4465, 3760
3982, 4452, 4453, 4466, 4465
3983, 4453, 4454, 4467, 4466
3984, 4454, 4455, 4468, 4467
3985, 4455, 4456, 4469, 4468
3986, 4456, 4457, 4470, 4469
3987, 4457, 4458, 4471, 4470
3988, 4458, 4459, 4472, 4471
3989, 4459, 4460, 4473, 4472
3990, 4460, 4461, 4474, 4473
3991, 4461, 4462, 4475, 4474
3992, 4462, 4463, 4476, 4475
3993, 4463, 4464, 4477, 4476
3994, 4464,  839,  838, 4477
3995, 3760, 4465, 4478, 3761
3996, 4465, 4466, 4479, 4478
3997, 4466, 4467, 4480, 4479
3998, 4467, 4468, 4481, 4480
3999, 4468, 4469, 4482, 4481
4000, 4469, 4470, 4483, 4482
4001, 4470, 4471, 4484, 4483
4002, 4471, 4472, 4485, 4484
4003, 4472, 4473, 4486, 4485
4004, 4473, 4474, 4487, 4486
4005, 4474, 4475, 4488, 4487
4006, 4475, 4476, 4489, 4488
4007, 4476, 4477, 4490, 4489
4008, 4477,  838,  837, 4490
4009, 3761, 4478, 4491, 3762
4010, 4478, 4479, 4492, 4491
4011, 4479, 4480, 4493, 4492
4012, 4480, 4481, 4494, 4493
4013, 4481, 4482, 4495, 4494
4014, 4482, 4483, 4496, 4495
4015, 4483, 4484, 4497, 4496
4016, 4484, 4485, 4498, 4497
4017, 4485, 4486, 4499, 4498
4018, 4486, 4487, 4500, 4499
4019, 4487, 4488, 4501, 4500
4020, 4488, 4489, 4502, 4501
4021, 4489, 4490, 4503, 4502
4022, 4490,  837,  836, 4503
4023, 3762, 4491, 4504, 3763
4024, 4491, 4492, 4505, 4504
4025, 4492, 4493, 4506, 4505
4026, 4493, 4494, 4507, 4506
4027, 4494, 4495, 4508, 4507
4028, 4495, 4496, 4509, 4508
4029, 4496, 4497, 4510, 4509
4030, 4497, 4498, 4511, 4510
4031, 4498, 4499, 4512, 4511
4032, 4499, 4500, 4513, 4512
4033, 4500, 4501, 4514, 4513
4034, 4501, 4502, 4515, 4514
4035, 4502, 4503, 4516, 4515
4036, 4503,  836,  835, 4516
4037, 3763, 4504, 4517, 3764
4038, 4504, 4505, 4518, 4517
4039, 4505, 4506, 4519, 4518
4040, 4506, 4507, 4520, 4519
4041, 4507, 4508, 4521, 4520
4042, 4508, 4509, 4522, 4521
4043, 4509, 4510, 4523, 4522
4044, 4510, 4511, 4524, 4523
4045, 4511, 4512, 4525, 4524
4046, 4512, 4513, 4526, 4525
4047, 4513, 4514, 4527, 4526
4048, 4514, 4515, 4528, 4527
4049, 4515, 4516, 4529, 4528
4050, 4516,  835,  834, 4529
4051, 3764, 4517, 4530, 3765
4052, 4517, 4518, 4531, 4530
4053, 4518, 4519, 4532, 4531
4054, 4519, 4520, 4533, 4532
4055, 4520, 4521, 4534, 4533
4056, 4521, 4522, 4535, 4534
4057, 4522, 4523, 4536, 4535
4058, 4523, 4524, 4537, 4536
4059, 4524, 4525, 4538, 4537
4060, 4525, 4526, 4539, 4538
4061, 4526, 4527, 4540, 4539
4062, 4527, 4528, 4541, 4540
4063, 4528, 4529, 4542, 4541
4064, 4529,  834,  833, 4542
4065, 3765, 4530, 4543, 3766
4066, 4530, 4531, 4544, 4543
4067, 4531, 4532, 4545, 4544
4068, 4532, 4533, 4546, 4545
4069, 4533, 4534, 4547, 4546
4070, 4534, 4535, 4548, 4547
4071, 4535, 4536, 4549, 4548
4072, 4536, 4537, 4550, 4549
4073, 4537, 4538, 4551, 4550
4074, 4538, 4539, 4552, 4551
4075, 4539, 4540, 4553, 4552
4076, 4540, 4541, 4554, 4553
4077, 4541, 4542, 4555, 4554
4078, 4542,  833,  832, 4555
4079, 3766, 4543, 4556, 3767
4080, 4543, 4544, 4557, 4556
4081, 4544, 4545, 4558, 4557
4082, 4545, 4546, 4559, 4558
4083, 4546, 4547, 4560, 4559
4084, 4547, 4548, 4561, 4560
4085, 4548, 4549, 4562, 4561
4086, 4549, 4550, 4563, 4562
4087, 4550, 4551, 4564, 4563
4088, 4551, 4552, 4565, 4564
4089, 4552, 4553, 4566, 4565
4090, 4553, 4554, 4567, 4566
4091, 4554, 4555, 4568, 4567
4092, 4555,  832,  831, 4568
4093, 3767, 4556, 4569, 3768
4094, 4556, 4557, 4570, 4569
4095, 4557, 4558, 4571, 4570
4096, 4558, 4559, 4572, 4571
4097, 4559, 4560, 4573, 4572
4098, 4560, 4561, 4574, 4573
4099, 4561, 4562, 4575, 4574
4100, 4562, 4563, 4576, 4575
4101, 4563, 4564, 4577, 4576
4102, 4564, 4565, 4578, 4577
4103, 4565, 4566, 4579, 4578
4104, 4566, 4567, 4580, 4579
4105, 4567, 4568, 4581, 4580
4106, 4568,  831,  830, 4581
4107, 3768, 4569, 4582, 3769
4108, 4569, 4570, 4583, 4582
4109, 4570, 4571, 4584, 4583
4110, 4571, 4572, 4585, 4584
4111, 4572, 4573, 4586, 4585
4112, 4573, 4574, 4587, 4586
4113, 4574, 4575, 4588, 4587
4114, 4575, 4576, 4589, 4588
4115, 4576, 4577, 4590, 4589
4116, 4577, 4578, 4591, 4590
4117, 4578, 4579, 4592, 4591
4118, 4579, 4580, 4593, 4592
4119, 4580, 4581, 4594, 4593
4120, 4581,  830,  829, 4594
4121, 3769, 4582, 4595, 3770
4122, 4582, 4583, 4596, 4595
4123, 4583, 4584, 4597, 4596
4124, 4584, 4585, 4598, 4597
4125, 4585, 4586, 4599, 4598
4126, 4586, 4587, 4600, 4599
4127, 4587, 4588, 4601, 4600
4128, 4588, 4589, 4602, 4601
4129, 4589, 4590, 4603, 4602
4130, 4590, 4591, 4604, 4603
4131, 4591, 4592, 4605, 4604
4132, 4592, 4593, 4606, 4605
4133, 4593, 4594, 4607, 4606
4134, 4594,  829,  828, 4607
4135, 3770, 4595, 4608, 3771
4136, 4595, 4596, 4609, 4608
4137, 4596, 4597, 4610, 4609
4138, 4597, 4598, 4611, 4610
4139, 4598, 4599, 4612, 4611
4140, 4599, 4600, 4613, 4612
4141, 4600, 4601, 4614, 4613
4142, 4601, 4602, 4615, 4614
4143, 4602, 4603, 4616, 4615
4144, 4603, 4604, 4617, 4616
4145, 4604, 4605, 4618, 4617
4146, 4605, 4606, 4619, 4618
4147, 4606, 4607, 4620, 4619
4148, 4607,  828,  827, 4620
4149, 3771, 4608, 3712, 3710
4150, 4608, 4609, 3713, 3712
4151, 4609, 4610, 3714, 3713
4152, 4610, 4611, 3715, 3714
4153, 4611, 4612, 3716, 3715
4154, 4612, 4613, 3717, 3716
4155, 4613, 4614, 3718, 3717
4156, 4614, 4615, 3719, 3718
4157, 4615, 4616, 3720, 3719
4158, 4616, 4617, 3721, 3720
4159, 4617, 4618, 3722, 3721
4160, 4618, 4619, 3723, 3722
4161, 4619, 4620, 3724, 3723
4162, 4620,  827,  826, 3724
*Element, type=CPS3
 4163, 5802,   75,   74
 4164, 6524, 4624, 6425
 4165, 6709, 6578, 4656
 4166, 7062, 6920, 4688
 4167, 7634, 7433, 4749
 4168, 7718, 7585, 7692
 4169, 8055, 7870, 4784
 4170, 8313, 8206, 8252
 4171, 8636, 8487, 8573
 4172, 8622, 8578, 4832
 4173, 8388, 8319, 4833
 4174, 8321, 8268, 4850
 4175, 8166, 8099, 4868
 4176, 8165, 4910, 8124
 4177, 7861, 7817, 4942
 4178, 7885, 7784, 4974
 4179, 7961, 5006, 7884
 4180, 8149, 8084, 5037
 4181, 8735, 7791, 6726
 4182, 6237, 6039, 6050
 4183, 5839, 5723, 5726
 4184, 5871, 5757, 5737
 4185, 5784, 5752,  620
 4186, 5773,  619,  618
 4187, 5952, 5782, 5891
 4188, 6021, 5992, 5424
 4189, 6310, 6110, 6248
 4190, 7023, 6821, 6604
 4191, 7948, 7927, 5395
 4192, 7685, 7565, 7566
 4193, 7235, 7061, 6950
 4194, 8723, 6714, 6708
 4195, 6523, 6427, 5358
 4196, 5622,  420,  421
 4197, 5621, 5527, 5358
 4198, 6427, 5526, 5621
 4199, 5620, 5552, 5327
 4200, 6414, 5982, 6069
 4201, 6496, 6297, 6149
 4202, 7257, 6956, 7084
 4203, 7693, 7686, 5393
 4204, 7575, 7441, 7145
 4205, 6757, 6591, 5414
 4206, 6210, 6097, 5424
 4207, 6193, 6101, 6046
 4208, 5985, 5444, 5938
 4209, 6091, 6053, 5134
 4210, 6231, 5103, 6066
 4211, 6910, 5071, 6743
 4212, 8707, 7654, 7616
 4213, 7703, 7415, 4976
 4214, 7504, 7190, 7403
 4215, 7242, 6995, 6933
 4216, 7347, 4911, 7222
 4217, 7843, 7711, 4869
 4218, 8092, 7849, 7960
 4219, 7818, 7648, 7732
 4220, 8390, 7701, 7896
 4221, 8667, 8174, 8646
 4222, 8415, 8305, 8361
 4223, 8276, 4770, 8223
 4224, 7799, 7582, 7689
 4225, 7582, 7457, 4721
 4226, 7011, 6677, 4689
 4227, 6090, 5895, 6003
 4228, 5625, 5553,  546
 4229, 5528,  547,  548
 4230, 5624, 5529, 4624
 4231, 5529,  549,  550
 4232, 6425, 5529, 5623
 4233, 5599,   11,  355
 4234, 5817,   11, 5599
 4235, 5830,   13,   12
 4236, 5818,   15, 5815
 4237, 5829,   17,   16
 4238, 5812, 5810, 5256
 4239, 5819, 5814,   21
 4240, 5820,   23,   22
 4241, 5827, 5821,   24
 4242, 5826, 5821, 5193
 4243, 5825, 5822,   28
 4244, 5823,   30, 5813
 4245, 5824, 5823, 5145
 4246, 5870, 5816, 5115
 4247, 5523, 5500,   36
 4248, 5511, 5505,   39
 4249, 5512,   40, 5505
 4250, 5501,   43,   42
 4251, 5519, 5502,   45
 4252, 5518, 5513,   47
 4253, 5514, 5504,   50
 4254, 5515,   52,   51
 4255, 5516, 5506,   54
 4256, 5510, 5507,   56
 4257, 5509, 5508,   58
 4258, 5794,   61,   60
 4259, 5801,   63,   62
 4260, 5807, 5796,   65
 4261, 5806, 5797,   67
 4262, 5805, 5798,   69
 4263, 5804, 5799,   71
 4264, 5803, 5800,   73
 4265, 5530,  552,   75
 4266, 6404, 5799, 5804
 4267, 6376, 5805, 4716
 4268, 6250, 5806, 4746
 4269, 7477, 5807, 4763
 4270, 5801, 5795,   63
 4271, 5852, 5525, 4794
 4272, 6065, 5914, 5508
 4273, 5968, 5507, 5510
 4274, 5849, 5847, 5516
 4275, 6384, 5842, 5504
 4276, 6161, 6071, 4857
 4277, 5969, 5513, 5518
 4278, 5843, 5502, 5519
 4279, 5909, 5520, 5501
 4280, 5845, 5505, 5022
 4281, 5970, 5511, 5522
 4282, 5846, 5500, 5523
 4283, 5831,   33, 5816
 4284, 5824, 5115, 5816
 4285, 5867, 5823, 5813
 4286, 5966, 5822, 5825
 4287, 6242, 5811, 5826
 4288, 6241, 5821, 5827
 4289, 5868, 5814, 5223
 4290, 5819, 5223, 5814
 4291, 5812,   18, 5810
 4292, 5829, 5256, 5810
 4293, 5869, 5818, 5815
 4294, 5967, 5809, 5830
 4295, 5531,  356,  357
 4296, 6426, 5531, 5598
 4297, 6006, 5328, 5967
 4298, 6737, 6047, 5907
 4299, 6218, 6115, 6123
 4300, 6119, 6048, 5239
 4301, 6051, 5919, 5223
 4302, 6572, 6345, 5208
 4303, 7246, 6241, 6345
 4304, 6343, 5178, 6242
 4305, 6007, 5162, 5966
 4306, 6719, 6044, 5906
 4307, 6216, 5116, 6127
 4308, 6518, 6510, 5086
 4309, 6517, 6247, 6354
 4310, 6766, 6292, 6458
 4311, 8739, 6459, 4993
 4312, 6507, 6229, 6344
 4313, 8710, 6506, 6784
 4314, 6820, 6326, 6628
 4315, 7759, 7551, 4859
 4316, 6508, 6230, 6342
 4317, 7003, 6509, 6630
 4318, 7008, 6819, 4811
 4319, 6760, 6305, 6489
 4320, 6548, 6176, 6305
 4321, 6991, 6849, 6549
 4322, 7329, 4747, 7177
 4323, 7396, 4718, 7187
 4324, 7256, 6920, 7062
 4325, 6976, 4687, 6945
 4326, 6975, 6945, 6709
 4327, 6863, 6674, 6491
 4328, 6491, 6404, 4685
 4329, 6848, 6644, 6455
 4330, 6455, 6376, 4716
 4331, 6662, 6484, 6280
 4332, 7477, 7375, 4746
 4333, 7447, 7329, 6996
 4334, 5532,  358,  359
 4335, 6399, 5532, 5597
 4336, 6792, 6488, 6497
 4337, 6556, 6346, 5298
 4338, 7490, 7282, 5257
 4339, 6222, 5240, 6121
 4340, 6217, 5224, 6102
 4341, 6741, 6559, 6347
 4342, 7737, 7609, 5194
 4343, 7742, 7509, 7609
 4344, 7482, 6914, 6983
 4345, 6534, 6336, 5146
 4346, 7247, 6982, 7178
 4347, 7127, 6690, 7069
 4348, 8602, 7006, 7176
 4349, 7126, 6782, 7006
 4350, 7549, 7519, 4993
 4351, 7170, 4963, 7002
 4352, 7171, 6786, 7002
 4353, 7298, 6809, 7175
 4354, 7548, 7518, 4859
 4355, 7172, 4843, 7004
 4356, 7173, 6785, 7004
 4357, 7434, 6977, 7295
 4358, 8380, 6931, 6802
 4359, 7067, 6778, 6931
 4360, 7264, 7068, 7205
 4361, 7691, 7585, 4749
 4362, 7435, 7281, 7396
 4363, 5533,  360,  361
 4364, 6266, 5533, 5596
 4365, 6699, 6287, 6481
 4366, 7363, 6917, 6736
 4367, 7390, 7075, 7231
 4368, 7090, 6925, 5241
 4369, 7111, 6926, 6738
 4370, 8420, 5210, 6745
 4371, 7922, 5195, 7771
 4372, 7835, 5181, 7535
 4373, 7520, 7244, 7362
 4374, 7380, 7124, 7244
 4375, 7608, 7526, 5118
 4376, 7607, 7450, 7411
 4377, 8529, 7342, 7568
 4378, 8434, 8341, 5025
 4379, 7952, 7827, 7877
 4380, 8274, 8225, 4963
 4381, 8171, 8121, 4932
 4382, 7868, 4902, 7780
 4383, 8006, 7652, 7780
 4384, 8558, 7751, 7878
 4385, 8595, 8594, 4827
 4386, 8474, 8432, 4813
 4387, 8333, 8230, 4797
 4388, 7750, 7426, 7558
 4389, 8530, 7270, 7557
 4390, 7692, 7585, 4766
 4391, 5534,  362,  363
 4392, 6249, 5534, 5595
 4393, 6889, 6685, 6269
 4394, 8537, 5332, 7341
 4395, 7547, 5259, 7530
 4396, 7606, 7364, 7237
 4397, 7528, 7367, 7248
 4398, 8264, 7485, 7605
 4399, 8224, 8157, 5196
 4400, 7953, 5182, 7908
 4401, 7813, 7678, 7536
 4402, 7918, 7907, 5149
 4403, 7776, 5119, 7741
 4404, 8117, 7968, 8053
 4405, 8312, 8195, 8265
 4406, 8258, 5027, 8194
 4407, 8150, 8072, 8040
 4408, 8535, 8008, 8113
 4409, 8569, 4964, 8535
 4410, 8510, 8476, 4903
 4411, 8205, 8073, 8114
 4412, 8536, 8005, 8115
 4413, 8633, 8571, 8616
 4414, 8432, 8379, 4813
 4415, 8105, 4799, 8054
 4416, 7969, 7870, 7777
 4417, 7970, 4783, 7870
 4418, 5535,  364,  365
 4419, 5594, 5363, 5535
 4420, 7229, 7103, 5333
 4421, 7874, 7773, 5301
 4422, 7949, 7683, 7773
 4423, 7783, 7728, 7656
 4424, 7915, 7627, 7828
 4425, 8139, 7944, 8093
 4426, 8367, 8255, 8296
 4427, 8301, 8246, 5182
 4428, 8186, 8090, 8136
 4429, 8545, 8137, 5150
 4430, 8345, 8281, 8227
 4431, 8343, 8311, 5089
 4432, 8357, 8265, 8311
 4433, 8387, 5028, 8340
 4434, 8278, 8231, 8178
 4435, 8339, 8231, 4997
 4436, 8589, 4935, 8562
 4437, 8514, 8396, 8433
 4438, 8336, 8273, 8221
 4439, 8443, 8335, 8395
 4440, 8629, 8497, 8604
 4441, 8611, 8493, 8581
 4442, 8624, 8459, 8493
 4443, 8252, 8206, 4784
 4444, 5536,  367,  368
 4445, 5592, 5536,  368
 4446, 6661, 6275, 6477
 4447, 7200, 7022, 5303
 4448, 7595, 7496, 5262
 4449, 8057, 7955, 5244
 4450, 8127, 7853, 8058
 4451, 8192, 8093, 8140
 4452, 8352, 8220, 5214
 4453, 8399, 8363, 8371
 4454, 8303, 8254, 8218
 4455, 8418, 8345, 5150
 4456, 8337, 5121, 8281
 4457, 8523, 8316, 8407
 4458, 8579, 8491, 8455
 4459, 8641, 8620, 5028
 4460, 8576, 8437, 8478
 4461, 8546, 8383, 8479
 4462, 8627, 8508, 8588
 4463, 8677, 8566, 8656
 4464, 8630, 8599, 4905
 4465, 8644, 8628, 4846
 4466, 8649, 8604, 8628
 4467, 8709, 8637, 8665
 4468, 8606, 8573, 8585
 4469, 5537,  369,  370
 4470, 5591, 5537,  370
 4471, 6835, 6454, 6643
 4472, 7355, 6984, 7255
 4473, 7730, 5262, 7496
 4474, 8292, 8172, 8239
 4475, 8492, 8452, 5229
 4476, 8408, 8364, 8302
 4477, 8577, 8414, 8429
 4478, 8601, 8528, 8490
 4479, 8449, 8409, 8368
 4480, 8503, 8466, 5152
 4481, 8401, 8300, 8353
 4482, 8458, 8308, 5092
 4483, 8607, 8498, 5061
 4484, 8664, 5029, 8654
 4485, 8666, 8662, 4999
 4486, 8684, 8659, 8640
 4487, 8702, 8678, 4968
 4488, 8703, 8683, 8695
 4489, 8686, 8650, 8671
 4490, 8676, 8631, 8650
 4491, 8623, 8578, 4831
 4492, 8648, 8578, 8622
 4493, 5538,  371,  372
 4494, 5590, 5539, 5367
 4495, 6852, 6503, 6671
 4496, 7327, 6969, 7166
 4497, 7721, 7640, 5264
 4498, 8419, 8370, 8331
 4499, 8520, 8318, 8410
 4500, 8506, 8471, 8427
 4501, 8572, 8526, 8505
 4502, 8362, 8306, 5185
 4503, 8453, 8421, 8280
 4504, 8496, 8467, 8446
 4505, 8262, 8146, 8169
 4506, 8284, 8104, 5093
 4507, 8538, 8287, 8349
 4508, 8706, 8441, 8484
 4509, 8662, 8590, 8651
 4510, 8700, 4969, 8692
 4511, 8681, 8673, 4937
 4512, 8696, 8674, 8682
 4513, 8675, 8512, 4865
 4514, 8689, 8470, 4848
 4515, 8574, 8470, 4849
 4516, 5539,  373,  374
 4517, 6434, 5539, 5589
 4518, 6874, 6540, 6697
 4519, 7313, 6961, 7156
 4520, 7720, 7635, 5265
 4521, 8468, 8457, 8435
 4522, 8392, 8267, 8329
 4523, 8489, 8393, 5217
 4524, 8647, 8619, 8583
 4525, 8176, 8039, 8112
 4526, 8286, 8236, 8177
 4527, 8425, 8307, 8330
 4528, 8085, 8076, 7934
 4529, 8131, 8078, 7999
 4530, 8350, 8288, 8188
 4531, 8485, 8442, 8323
 4532, 8625, 8586, 8502
 4533, 8701, 8694, 8699
 4534, 8608, 8593, 8494
 4535, 8454, 8406, 4908
 4536, 8405, 8354, 4866
 4537, 8428, 8321, 8386
 4538, 5540,  375,  376
 4539, 7024, 6873, 5368
 4540, 7045, 5337, 6697
 4541, 7449, 7156, 7312
 4542, 8509, 5266, 8456
 4543, 8416, 8326, 5248
 4544, 8142, 8060, 5233
 4545, 8334, 8244, 5218
 4546, 7897, 7811, 5202
 4547, 7974, 7886, 7790
 4548, 7887, 5187, 7790
 4549, 8504, 8425, 5171
 4550, 7781, 7673, 7748
 4551, 8183, 7905, 5095
 4552, 8132, 8086, 5064
 4553, 8283, 5063, 8226
 4554, 8639, 8563, 8397
 4555, 8699, 8564, 4970
 4556, 8483, 8440, 8385
 4557, 8406, 8365, 8309
 4558, 8346, 8309, 4909
 4559, 5541,  377,  378
 4560, 7026, 6855, 5369
 4561, 7285, 7198, 5369
 4562, 7735, 7573, 5338
 4563, 7805, 7707, 5267
 4564, 8077, 8010, 5250
 4565, 8060, 7966, 7859
 4566, 7901, 7820, 7733
 4567, 7619, 7284, 7398
 4568, 7494, 7398, 7261
 4569, 7487, 7394, 5189
 4570, 7533, 7480, 5156
 4571, 7554, 7360, 7417
 4572, 7987, 5095, 7905
 4573, 8086, 8011, 5064
 4574, 8079, 8011, 5065
 4575, 8402, 8400, 5003
 4576, 8403, 5002, 8348
 4577, 8411, 8372, 4940
 4578, 8310, 8165, 8263
 4579, 5542,  379,  380
 4580, 6419, 5542, 5586
 4581, 7422, 6514, 6647
 4582, 7325, 6966, 7291
 4583, 7894, 7796, 5268
 4584, 8080, 8010, 7977
 4585, 7919, 7845, 5234
 4586, 7649, 7470, 5219
 4587, 7092, 5205, 6959
 4588, 7091, 5204, 6959
 4589, 7058, 5189, 6895
 4590, 7480, 7250, 5156
 4591, 7304, 7148, 7123
 4592, 7467, 7349, 7236
 4593, 7677, 7531, 5066
 4594, 8540, 7872, 5035
 4595, 8400, 8338, 8216
 4596, 8128, 8069, 4973
 4597, 8422, 8182, 7861
 4598, 5543,  381,  382
 4599, 6386, 5543, 5585
 4600, 6833, 6462, 6485
 4601, 7381, 7130, 7015
 4602, 7630, 7478, 7484
 4603, 8126, 8065, 8098
 4604, 8068, 7982, 5235
 4605, 7087, 5221, 6952
 4606, 7086, 6952, 6520
 4607, 6569, 5205, 6417
 4608, 6701, 6268, 5175
 4609, 6993, 6941, 6905
 4610, 6546, 6243, 5129
 4611, 7356, 7230, 5097
 4612, 7531, 7230, 7357
 4613, 8727, 7910, 5035
 4614, 8095, 5005, 7988
 4615, 7988, 5005, 7784
 4616, 5544,  383,  384
 4617, 6258, 5544, 5584
 4618, 6859, 6659, 6283
 4619, 7197, 7072, 5311
 4620, 7484, 7389, 6610
 4621, 6350, 6244, 5253
 4622, 6188, 6105, 5237
 4623, 6581, 6323, 6201
 4624, 6298, 5886, 5207
 4625, 6114, 5917, 6055
 4626, 6316, 6200, 6113
 4627, 6309, 6108, 5159
 4628, 6243, 6141, 6175
 4629, 6624, 6531, 6554
 4630, 7537, 7483, 6932
 4631, 7815, 5036, 7679
 4632, 8123, 7961, 8046
 4633, 5545,  385,  386
 4634, 5583, 5373, 5545
 4635, 7376, 5343, 7243
 4636, 6935, 5312, 6620
 4637, 6551, 6338, 6532
 4638, 6244, 6139, 5253
 4639, 6105, 5929, 5237
 4640, 5775,  596,  595
 4641, 5886, 5731, 5793
 4642, 6313, 5875, 5730
 4643, 5759, 5730,  633
 4644, 6108, 5931, 6032
 4645, 6059, 5160, 5866
 4646, 6566, 6145, 5100
 4647, 6649, 6566, 5100
 4648, 7958, 7911, 5068
 4649, 5546,  388,  389
 4650, 5581, 5546,  389
 4651, 7399, 7199, 5343
 4652, 6619, 5313, 6557
 4653, 6327, 6135, 5271
 4654, 6180, 5254, 6139
 4655, 5858,  600, 5255
 4656, 5756,  602,  601
 4657, 5959, 5274, 5725
 4658, 6117, 5316, 6029
 4659, 7053, 5347, 6689
 4660, 7028, 6877, 5379
 4661, 5666, 5653, 5381
 4662, 6433, 5652, 5666
 4663, 5653,  402,  403
 4664, 6410, 5653, 5665
 4665, 7423, 6502, 6638
 4666, 7316, 6970, 7292
 4667, 6725, 5278, 6665
 4668, 6300, 6153, 5295
 4669, 6098, 6042, 5965
 4670, 6014, 5942, 5888
 4671, 6008, 5915, 5834
 4672, 5836, 5425, 5741
 4673, 5836, 5741, 5791
 4674, 5782,  616, 5741
 4675, 5547,  390,  391
 4676, 5580, 5547,  391
 4677, 6686, 6286, 6490
 4678, 6898, 6759, 6587
 4679, 6767, 6359, 5272
 4680, 5858, 5756,  601
 4681, 6213, 5273, 5858
 4682, 5548,  392,  393
 4683, 5579, 5548,  393
 4684, 6817, 6771, 5345
 4685, 6356, 6214, 6238
 4686, 6238, 6022, 6040
 4687, 5549,  394,  395
 4688, 5578, 5550, 5378
 4689, 6887, 6516, 6689
 4690, 7276, 6887, 5347
 4691, 5550,  396,  397
 4692, 7029, 6888, 5378
 4693, 6887, 6689, 5347
 4694, 5551,  398,  399
 4695, 5654,  404,  405
 4696, 6380, 5654, 5664
 4697, 6825, 6449, 6471
 4698, 7387, 7144, 7017
 4699, 7603, 7472, 5321
 4700, 6893, 6594, 6728
 4701, 6781, 6727, 5396
 4702, 6583, 6248, 6179
 4703, 6110, 5415, 6008
 4704, 5655,  406,  407
 4705, 6253, 5655, 5663
 4706, 6834, 6704, 5353
 4707, 7185, 7137, 5322
 4708, 7522, 7359, 5280
 4709, 7258, 7121, 6997
 4710, 8527, 7232, 5395
 4711, 6604, 5405, 6583
 4712, 5656,  408,  409
 4713, 5662, 5384, 5656
 4714, 6880, 6704, 6395
 4715, 7010, 6675, 5323
 4716, 7213, 6955, 5282
 4717, 7641, 7452, 7303
 4718, 7392, 5395, 7232
 4719, 5632,  411,  412
 4720, 5643, 5632,  412
 4721, 6088, 5897, 6001
 4722, 6494, 6295, 5324
 4723, 7080, 6955, 6774
 4724, 7685, 7566, 7431
 4725, 5633,  413,  414
 4726, 5642, 5633,  414
 4727, 6072, 5355, 6001
 4728, 6755, 6577, 5325
 4729, 7235, 6950, 6923
 4730, 5634,  415,  416
 4731, 5641, 5635, 5388
 4732, 6608, 6276, 6478
 4733, 6708, 6577, 5356
 4734, 5635,  417,  418
 4735, 6429, 5635, 5640
 4736, 6523, 5388, 6429
 4737, 5650,  420, 5622
 4738, 6400, 5527, 5620
 4739, 5921, 5554, 5286
 4740, 6089, 6002, 5896
 4741, 8704, 6678, 6790
 4742, 7521, 7456, 7404
 4743, 7898, 7889, 7825
 4744, 7440, 5413, 7297
 4745, 7206, 6762, 5422
 4746, 6627, 5433, 6368
 4747, 6156, 5443, 6101
 4748, 6208, 5135, 6131
 4749, 6535, 6365, 5104
 4750, 6777, 5072, 6547
 4751, 7382, 5040, 7238
 4752, 7723, 7712, 5009
 4753, 8737, 6761, 4945
 4754, 6903, 6560, 4913
 4755, 6622, 6530, 4912
 4756, 6542, 6245, 6352
 4757, 8148, 7965, 7855
 4758, 7666, 7599, 7471
 4759, 7726, 7283, 7622
 4760, 8729, 7973, 4803
 4761, 8234, 8111, 8175
 4762, 8344, 8328, 8266
 4763, 8151, 7980, 8059
 4764, 7717, 7639, 4722
 4765, 7191, 7139, 4690
 4766, 6882, 6397, 4658
 4767, 5626, 5555,  544
 4768, 5553,  545,  546
 4769, 5973, 5552, 5619
 4770, 6289, 5556, 5287
 4771, 6396, 5288, 6184
 4772, 7192, 6811, 7021
 4773, 7724, 7521, 7525
 4774, 7794, 7667, 5412
 4775, 7837, 5422, 7663
 4776, 7241, 6735, 5432
 4777, 6734, 6710, 5442
 4778, 6740, 6469, 5136
 4779, 6467, 5105, 6357
 4780, 6799, 5073, 6746
 4781, 7601, 7507, 5041
 4782, 7983, 5010, 7873
 4783, 7065, 6770, 4946
 4784, 6761, 6586, 6599
 4785, 6560, 6144, 6331
 4786, 6341, 6177, 6245
 4787, 6636, 6371, 6443
 4788, 7848, 7508, 7599
 4789, 7217, 6958, 4805
 4790, 7492, 7260, 7393
 4791, 7882, 7789, 7661
 4792, 8242, 8189, 8143
 4793, 8083, 7913, 7980
 4794, 7839, 7758, 4723
 4795, 7385, 7142, 7020
 4796, 6839, 6706, 4659
 4797, 5628, 4628, 5557
 4798, 5555,  543,  544
 4799, 5856, 5554, 5618
 4800, 5617,  431,  432
 4801, 6840, 6705, 5390
 4802, 7350, 7021, 6986
 4803, 7716, 7642, 7517
 4804, 7985, 7914, 5421
 4805, 7699, 7592, 5440
 4806, 7181, 7001, 5441
 4807, 7221, 5137, 7057
 4808, 6906, 5106, 6740
 4809, 8249, 8198, 5074
 4810, 8138, 8096, 8018
 4811, 7768, 5010, 7747
 4812, 7128, 7064, 4978
 4813, 6770, 6215, 6358
 4814, 6448, 6126, 6279
 4815, 6136, 5956, 6058
 4816, 6027, 4855, 5860
 4817, 6580, 6202, 6317
 4818, 7408, 6519, 7218
 4819, 7088, 6958, 6749
 4820, 7623, 7393, 7486
 4821, 7978, 7972, 4773
 4822, 8153, 8037, 4725
 4823, 7933, 7709, 7803
 4824, 7321, 6972, 7294
 4825, 6828, 6452, 6474
 4826, 6256, 5629, 4628
 4827, 5628,  541,  542
 4828, 5617, 5287, 5556
 4829, 5558,  433,  434
 4830, 6829, 6475, 6453
 4831, 7322, 7253, 6971
 4832, 7714, 7637, 7506
 4833, 8118, 8063, 5429
 4834, 7592, 7495, 5440
 4835, 7455, 7339, 5138
 4836, 7340, 7224, 5107
 4837, 7514, 5075, 7383
 4838, 8201, 8199, 8035
 4839, 7924, 7851, 7722
 4840, 7466, 4980, 7328
 4841, 6936, 6116, 6215
 4842, 6236, 6023, 6038
 4843, 6212, 5765, 5956
 4844, 5832,  558,  557
 4845, 5744,  557,  556
 4846, 5769,  593, 5729
 4847, 6197, 6054, 6111
 4848, 6943, 6700, 4776
 4849, 7418, 7358, 7302
 4850, 7556, 7418, 7419
 4851, 7445, 7158, 7319
 4852, 7308, 7043, 4663
 4853, 6436, 5695, 5696
 4854, 5631, 5560, 4630
 4855, 6413, 5559, 5631
 4856, 5560,  536,  537
 4857, 6383, 5560, 5630
 4858, 6452, 4630, 6383
 4859, 7424, 6500, 6641
 4860, 7294, 6972, 4661
 4861, 7307, 6963, 7163
 4862, 7154, 4663, 6963
 4863, 7438, 7308, 7154
 4864, 5616, 5558, 5390
 4865, 5561,  435,  436
 4866, 7114, 6499, 6846
 4867, 7305, 7164, 6964
 4868, 8144, 7633, 7624
 4869, 8549, 8051, 7959
 4870, 7787, 7696, 5139
 4871, 7680, 5108, 7587
 4872, 7706, 7602, 5076
 4873, 7940, 5044, 7938
 4874, 7993, 7851, 5012
 4875, 7629, 7335, 7410
 4876, 7096, 6753, 6913
 4877, 6031, 5948, 5928
 4878, 5958, 5728, 5738
 4879, 5765,  559, 4856
 4880, 5765, 5738,  560
 4881, 5765,  560,  559
 4882, 5615, 5561, 5399
 4883, 5562,  437,  438
 4884, 7119, 6537, 6866
 4885, 7305, 7153, 5428
 4886, 8190, 7610, 7801
 4887, 8027, 7912, 8001
 4888, 8133, 5109, 8026
 4889, 7956, 7871, 5077
 4890, 8116, 8043, 5045
 4891, 8067, 8033, 5013
 4892, 7502, 7412, 7180
 4893, 6919, 6769, 6529
 4894, 6913, 6157, 4917
 4895, 5786,  563, 5760
 4896, 5840, 5786, 5760
 4897, 5614, 5562, 5408
 4898, 5612, 5564, 5426
 4899, 6866, 6694, 5427
 4900, 7736, 7569, 5436
 4901, 7838, 7704, 7802
 4902, 8001, 7797, 7997
 4903, 8550, 8289, 5047
 4904, 8257, 8161, 8217
 4905, 8147, 8066, 5014
 4906, 7503, 7412, 4982
 4907, 7100, 6688, 6769
 4908, 6353, 6306, 6171
 4909, 5724,  565,  564
 4910, 6157, 6060, 6037
 4911, 6435, 5563, 5612
 4912, 5611, 5565, 5435
 4913, 7286, 7194, 5435
 4914, 7315, 7157, 6968
 4915, 7760, 7475, 7746
 4916, 8087, 7929, 7998
 4917, 8314, 8289, 8247
 4918, 8304, 5015, 8257
 4919, 7981, 7863, 7665
 4920, 7378, 7211, 4951
 4921, 6567, 6206, 6319
 4922, 5940, 5789, 5881
 4923, 5778,  565, 5724
 4924, 7025, 6867, 5426
 4925, 5610, 5566, 5144
 4926, 6850, 6680, 6511
 4927, 7384, 7131, 7012
 4928, 7590, 7489, 7402
 4929, 8196, 8101, 5049
 4930, 8412, 8314, 8322
 4931, 8028, 7994, 4984
 4932, 7795, 7786, 4953
 4933, 7814, 6660, 4920
 4934, 6132, 5986, 5994
 4935, 5789,  566, 5778
 4936, 5881, 5778, 5873
 4937, 7027, 6851, 5435
 4938, 5609, 5567, 5114
 4939, 6830, 6645, 6460
 4940, 7183, 7012, 6806
 4941, 8519, 7695, 7779
 4942, 8317, 8179, 8235
 4943, 8661, 8465, 8499
 4944, 8110, 7743, 7836
 4945, 7584, 7454, 7223
 4946, 6575, 6155, 6302
 4947, 5935, 5880, 5762
 4948, 5762,  568, 5748
 4949, 6420, 5566, 5609
 4950, 5608, 5568, 5083
 4951, 6656, 6482, 6281
 4952, 7451, 5050, 7331
 4953, 8025, 8024, 5018
 4954, 8598, 8587, 8560
 4955, 8173, 8110, 4954
 4956, 7541, 7338, 4922
 4957, 7054, 6901, 6733
 4958, 6192, 6045, 6100
 4959, 5787,  569, 5762
 4960, 5880, 5787, 5762
 4961, 6387, 5567, 5608
 4962, 5607, 5569, 5052
 4963, 7621, 7571, 5051
 4964, 7462, 7262, 7366
 4965, 8222, 7400, 7591
 4966, 8615, 8517, 8568
 4967, 8009, 7832, 7906
 4968, 7336, 7193, 7000
 4969, 6596, 6321, 4895
 4970, 6045, 6019, 5453
 4971, 5835, 5780, 5462
 4972, 5787, 5749,  570
 4973, 6259, 5568, 5607
 4974, 5606, 5605, 5021
 4975, 7365, 7095, 7262
 4976, 7461, 6805, 7184
 4977, 7727, 4956, 7488
 4978, 8592, 8568, 8517
 4979, 7731, 7374, 4882
 4980, 7066, 6927, 4894
 4981, 6178, 6096, 5452
 4982, 6084, 5462, 5945
 4983, 5837, 5768, 5772
 4984, 5953, 5783, 5890
 4985, 5774, 5771,  578
 4986, 5771, 5767,  579
 4987, 5753, 5747,  581
 4988, 5905, 4734, 5872
 4989, 6120, 4703, 6024
 4990, 6718, 6487, 4671
 4991, 6262, 5705, 4639
 4992, 5704, 5675, 4638
 4993, 5704, 4639, 5674
 4994, 5675,  519,  520
 4995, 5703, 4638, 5675
 4996, 7361, 7093, 7263
 4997, 6934, 4699, 6625
 4998, 6550, 6533, 6340
 4999, 6349, 4760, 6240
 5000, 6159, 4777, 6107
 5001, 6312, 6197, 6111
 5002, 6311, 6196, 4793
 5003, 6311, 5878, 5729
 5004, 5733,  592,  591
 5005, 4778,  591,  590
 5006, 5750,  589,  588
 5007, 6223, 5954, 5736
 5008, 6362, 4701, 6146
 5009, 7037, 6729, 4702
 5010, 6884, 6285, 4639
 5011, 6884, 6676, 6285
 5012, 8713, 7491, 7618
 5013, 7618, 7491, 6978
 5014, 6948, 6558, 6687
 5015, 6146, 6137, 4732
 5016, 6186, 4761, 6056
 5017, 6033, 5932, 5861
 5018, 5733, 5729,  592
 5019, 5733,  591, 4778
 5020, 5606, 5052, 5569
 5021, 5570,  454,  455
 5022, 6843, 6282, 6657
 5023, 7351, 7013, 6980
 5024, 7719, 7643, 7513
 5025, 7976, 7899, 7738
 5026, 7460, 7352, 4893
 5027, 7202, 7036, 6606
 5028, 6246, 6129, 5461
 5029, 5916, 5837, 5471
 5030, 5993, 5916, 5835
 5031, 5605, 5570, 5021
 5032, 5571,  456,  457
 5033, 6832, 6483, 6461
 5034, 7317, 7251, 6967
 5035, 8539, 7636, 7612
 5036, 7823, 7752, 4892
 5037, 7926, 7668, 7793
 5038, 7388, 5459, 7146
 5039, 6203, 6109, 5470
 5040, 5943, 5890, 5480
 5041, 6016, 6009, 5479
 5042, 5604, 5571, 4990
 5043, 5572,  458,  459
 5044, 7117, 6513, 6853
 5045, 7317, 7159, 4885
 5046, 8533, 7626, 7808
 5047, 8091, 8045, 7951
 5048, 7579, 7444, 7146
 5049, 6758, 6589, 5469
 5050, 6209, 6095, 5479
 5051, 6191, 6099, 6043
 5052, 5987, 5499, 5934
 5053, 6092, 6052, 4735
 5054, 6233, 4704, 6067
 5055, 6439, 4672, 6325
 5056, 6390, 5706, 4640
 5057, 5705, 5676,  516
 5058, 5603, 5572, 4959
 5059, 5573,  460,  461
 5060, 6853, 6681, 4886
 5061, 7740, 7572, 4889
 5062, 7931, 7710, 7809
 5063, 8200, 8145, 5457
 5064, 7577, 7443, 7299
 5065, 7204, 6765, 5477
 5066, 6626, 5488, 6369
 5067, 6154, 5498, 6099
 5068, 6205, 4736, 6133
 5069, 6528, 6363, 4705
 5070, 6780, 4673, 6543
 5071, 6423, 5678, 5707
 5072, 5706, 5677,  514
 5073, 5602, 5573, 4928
 5074, 5600, 5575, 4888
 5075, 7196, 6870, 7044
 5076, 7310, 7155, 6962
 5077, 7904, 7757, 5466
 5078, 7788, 7658, 5467
 5079, 7824, 5477, 7694
 5080, 7245, 6731, 5487
 5081, 6730, 6711, 5497
 5082, 6744, 6468, 4737
 5083, 6466, 4706, 6360
 5084, 6796, 6747, 6793
 5085, 7032, 6860, 4643
 5086, 5707, 5678,  512
 5087, 7030, 6854, 4887
 5088, 5673,  465,  466
 5089, 6871, 6696, 6539
 5090, 7323, 7165, 6973
 5091, 7757, 7473, 7715
 5092, 7844, 7580, 7688
 5093, 8041, 8034, 5486
 5094, 7179, 6998, 5496
 5095, 7225, 4738, 7051
 5096, 6904, 4707, 6744
 5097, 7120, 6861, 4676
 5098, 7033, 6865, 4644
 5099, 5708, 5679,  510
 5100, 7031, 6870, 4888
 5101, 5672, 5658, 5454
 5102, 6844, 6667, 6501
 5103, 7386, 7143, 7018
 5104, 7687, 7580, 5475
 5105, 7798, 7271, 7559
 5106, 8208, 7499, 5495
 5107, 7498, 4740, 7463
 5108, 7220, 6987, 4677
 5109, 6842, 6498, 6664
 5110, 6431, 5681, 5710
 5111, 5709, 5680,  508
 5112, 6432, 5657, 5672
 5113, 5671, 5659, 5463
 5114, 6827, 6640, 6451
 5115, 7186, 6814, 7141
 5116, 7265, 7077, 7212
 5117, 7684, 7560, 7562
 5118, 7266, 7259, 7078
 5119, 7189, 7140, 6813
 5120, 6826, 6450, 6639
 5121, 5711, 5682,  504
 5122, 5710, 5681,  506
 5123, 6409, 5658, 5671
 5124, 5670, 5660, 5472
 5125, 6652, 6472, 6271
 5126, 7134, 7097, 6787
 5127, 7076, 6776, 6922
 5128, 7060, 6954, 4741
 5129, 7135, 6788, 7105
 5130, 6653, 6272, 6473
 5131, 5712, 5683,  502
 5132, 5682,  503,  504
 5133, 6379, 5659, 5670
 5134, 5669, 5661, 5481
 5135, 6878, 6702, 6393
 5136, 6672, 6152, 6492
 5137, 7240, 6951, 6921
 5138, 6493, 4712, 6294
 5139, 6879, 6394, 6703
 5140, 5713, 5684,  500
 5141, 5683,  501,  502
 5142, 6252, 5660, 5669
 5143, 5668,  475,  476
 5144, 6181, 5899, 6085
 5145, 6756, 6576, 4713
 5146, 6712, 6437, 6294
 5147, 6182, 6087, 5898
 5148, 5715, 4649, 5685
 5149, 5684,  499,  500
 5150, 5668, 5661,  475
 5151, 5636,  477,  478
 5152, 6074, 5999, 5979
 5153, 6883, 6713, 6584
 5154, 6073, 6000, 4681
 5155, 6288, 5857, 5716
 5156, 5715,  497,  498
 5157, 8732, 5649, 5636
 5158, 5637,  479,  480
 5159, 8555, 6172, 6277
 5160, 6632, 6415, 4682
 5161, 5925, 5717, 5686
 5162, 5716, 5686,  495
 5163, 5922, 5648, 5637
 5164, 5638,  481,  482
 5165, 6750, 6602, 6522
 5166, 6401, 5688, 5718
 5167, 5717, 5687,  493
 5168, 5647, 5638, 4715
 5169, 5645, 5639,  484
 5170, 6428, 5689, 5719
 5171, 5718, 5688,  491
 5172, 6430, 5639, 5645
 5173, 5651, 5645,  485
 5174, 5719, 5689,  489
 5175, 5720,  487,  488
 5176, 5690,  522,  523
 5177, 5701, 5690,  523
 5178, 6670, 6284, 6486
 5179, 7226, 7074, 6803
 5180, 6614, 4730, 6533
 5181, 6824, 4759, 6615
 5182, 6908, 4776, 6445
 5183, 5691,  524,  525
 5184, 5700, 5691,  525
 5185, 6838, 6463, 6648
 5186, 7353, 6979, 7254
 5187, 7343, 7122, 7234
 5188, 7302, 7149, 7122
 5189, 5692,  526,  527
 5190, 5699, 5693, 4634
 5191, 6857, 6512, 6683
 5192, 7320, 6965, 7158
 5193, 7419, 4728, 7343
 5194, 5693,  528,  529
 5195, 7034, 6858, 4634
 5196, 7040, 4665, 6683
 5197, 7320, 7158, 4696
 5198, 5694,  530,  531
 5199, 7035, 6868, 4633
 5200, 7043, 6868, 6695
 5201, 5695,  532,  533
 5202, 5576,  538,  539
 5203, 4762,  588,  587
 5204, 5766, 4733, 5736
 5205, 5739,  584, 5722
 5206, 5747,  582,  581
 5207, 5838, 5722, 5727
 5208, 5951, 5920, 5838
 5209, 6024, 5920, 5951
 5210, 5883, 5872, 5753
 5211, 5774,  578,  577
 5212, 5774,  577, 5758
 5213, 5877, 5774, 5758
 5214, 5783,  575, 5768
 5215, 5875, 5743, 5730
 5216, 5759,  632, 5177
 5217, 5177,  632,  631
 5218, 5862, 5751, 5160
 5219, 6224, 5957, 5721
 5220, 6364, 5100, 6145
 5221, 6726, 5100, 6456
 5222, 5161,  629,  628
 5223, 5781, 5132, 5721
 5224, 5740,  625, 5723
 5225, 5960, 5740, 4622
 5226, 6050, 4622, 5927
 5227, 5871, 5133, 5757
 5228, 5734,  614,  613
 5229, 6093, 6008, 5834
 5230, 7047, 6877, 6698
 5231, 7207, 6877, 7047
 5232, 6752, 6526, 5317
 5233, 6307, 6013, 5276
 5234, 5779, 5754,  607
 5235, 5777, 5742,  609
 5236, 5770,  611,  610
 5237, 5888, 5407, 5790
 5238, 5941, 5888, 5790
 5239, 5834, 5732, 5407
 5240, 5754,  608,  607
 5241, 5735,  606,  605
 5242, 6170, 6061, 6158
 5243, 7101, 6752, 6907
 5244, 6907, 6752, 5317
 5245, 6918, 6768, 6526
 5246, 5788,  604, 5761
 5247, 6029, 5950, 5926
 5248, 5950, 5841, 5926
 5249, 5775,  595, 5731
 5250, 5859, 5833, 5745
 5251, 5833,  599,  598
 5252, 6424, 5800, 5803
 5253, 5882, 5763, 5792
 5254, 5792, 5763,  553
 5255, 6028, 5930, 4839
 5256, 5860, 4855, 5832
 5257, 5860, 5832, 5744
 5258, 6607, 6278, 6480
 5259, 6278, 6174, 4625
 5260, 6068, 4657, 6003
 5261, 5983, 4626, 5924
 5262, 8734, 5895, 6185
 5263, 6706, 6565, 6397
 5264, 6273, 4629, 6256
 5265, 6500, 4631, 6413
 5266, 7287, 6538, 6666
 5267, 6538, 4632, 6436
 5268, 6858, 6683, 4634
 5269, 6512, 4635, 6418
 5270, 6463, 4636, 6385
 5271, 6284, 4637, 6257
 5272, 7493, 7093, 7361
 5273, 6464, 4641, 6390
 5274, 6684, 6439, 4673
 5275, 6860, 6684, 6780
 5276, 6865, 6693, 4644
 5277, 6536, 4645, 6431
 5278, 6498, 4646, 6408
 5279, 6450, 4647, 6378
 5280, 6272, 4648, 6251
 5281, 6562, 6394, 4649
 5282, 5898, 4650, 5857
 5283, 5980, 4651, 5971
 5284, 6634, 6401, 6447
 5285, 6522, 6430, 4653
 5286, 6524, 6424, 4654
 5287, 6754, 6578, 4687
 5288, 6754, 6405, 6578
 5289, 6495, 6296, 4688
 5290, 6148, 4658, 6090
 5291, 7099, 6882, 6791
 5292, 6812, 4660, 6654
 5293, 7142, 6828, 4660
 5294, 6963, 4663, 6869
 5295, 7116, 6965, 4666
 5296, 6979, 4667, 6838
 5297, 6803, 4668, 6670
 5298, 7263, 7182, 4669
 5299, 6729, 4701, 6457
 5300, 6687, 6558, 4701
 5301, 6582, 6207, 4672
 5302, 6751, 6207, 6582
 5303, 6049, 4621, 5920
 5304, 5739,  585,  584
 5305, 6521, 6120, 4704
 5306, 6543, 6370, 6233
 5307, 6747, 6363, 6528
 5308, 6861, 4675, 6658
 5309, 7161, 7108, 6974
 5310, 6987, 4678, 6826
 5311, 6813, 4679, 6653
 5312, 6788, 6673, 4680
 5313, 6151, 4681, 6087
 5314, 6712, 6584, 6437
 5315, 7005, 6783, 6632
 5316, 6476, 6277, 6403
 5317, 7083, 6957, 6772
 5318, 6920, 6772, 4688
 5319, 7214, 6957, 4720
 5320, 8720, 7136, 7011
 5321, 7754, 7690, 4691
 5322, 7474, 4692, 7385
 5323, 7834, 4692, 7758
 5324, 7803, 7709, 4694
 5325, 7804, 7709, 4725
 5326, 7792, 7669, 7778
 5327, 7614, 4696, 7445
 5328, 7625, 4695, 7438
 5329, 7464, 7353, 4697
 5330, 7345, 7226, 4698
 5331, 6625, 6533, 6550
 5332, 6362, 6223, 6122
 5333, 6558, 6146, 4701
 5334, 6239, 6041, 6049
 5335, 6067, 4704, 6034
 5336, 6221, 4705, 6052
 5337, 6468, 6360, 6205
 5338, 6797, 6744, 6724
 5339, 7409, 7337, 7225
 5340, 7405, 4710, 7189
 5341, 7078, 6954, 4711
 5342, 6775, 4712, 6493
 5343, 7240, 7059, 6951
 5344, 6756, 6407, 6576
 5345, 6172, 6074, 5979
 5346, 7188, 7014, 7169
 5347, 7187, 7014, 6807
 5348, 7333, 6807, 4747
 5349, 7634, 7429, 7563
 5350, 7429, 7274, 4720
 5351, 7800, 7274, 7564
 5352, 7689, 7582, 4721
 5353, 8059, 7717, 7856
 5354, 7913, 4724, 7839
 5355, 7950, 4725, 7933
 5356, 8037, 7936, 8019
 5357, 8019, 4726, 7804
 5358, 7749, 7553, 4727
 5359, 7553, 7358, 7418
 5360, 7782, 7672, 7749
 5361, 6545, 6240, 4730
 5362, 6240, 6142, 6186
 5363, 5954, 5865, 4762
 5364, 6056, 4761, 5865
 5365, 5883, 5753, 5767
 5366, 5936, 5767, 5771
 5367, 6133, 5997, 5987
 5368, 6711, 6154, 5497
 5369, 7051, 6730, 6896
 5370, 7574, 7498, 4739
 5371, 7272, 4741, 7259
 5372, 7684, 7562, 7428
 5373, 6922, 6776, 4743
 5374, 6293, 6152, 4744
 5375, 5899, 5855, 4745
 5376, 6862, 6662, 6280
 5377, 7916, 7842, 4767
 5378, 8120, 7916, 8061
 5379, 8120, 8097, 4751
 5380, 8256, 8097, 8164
 5381, 8159, 4753, 8151
 5382, 8344, 4770, 8328
 5383, 8143, 8089, 4755
 5384, 8089, 7978, 8003
 5385, 7534, 4774, 7479
 5386, 7407, 7070, 7252
 5387, 7252, 7070, 4758
 5388, 7534, 7479, 4757
 5389, 6308, 6107, 4760
 5390, 5861, 5750, 4761
 5391, 5861, 4778, 5764
 5392, 5736, 4762,  587
 5393, 7391, 4764, 7177
 5394, 6721, 6374, 6692
 5395, 6549, 4780, 6375
 5396, 7468, 7447, 4765
 5397, 8206, 8106, 4784
 5398, 8253, 8164, 8106
 5399, 8486, 8445, 8391
 5400, 8544, 8445, 8486
 5401, 8415, 8361, 8328
 5402, 8234, 8175, 8189
 5403, 7972, 7882, 7661
 5404, 7486, 7393, 4790
 5405, 7055, 6892, 6717
 5406, 6527, 6328, 6267
 5407, 6700, 6527, 6267
 5408, 7208, 7055, 6717
 5409, 6721, 6597, 6374
 5410, 6169, 5900, 6083
 5411, 6548, 6375, 6176
 5412, 7068, 4781, 6940
 5413, 7426, 7270, 4782
 5414, 8487, 8444, 8327
 5415, 8444, 8391, 8327
 5416, 8525, 8260, 8360
 5417, 8305, 8260, 4787
 5418, 8111, 8038, 4788
 5419, 7973, 7883, 7789
 5420, 7393, 7260, 4790
 5421, 7088, 4805, 6958
 5422, 6568, 6228, 6328
 5423, 6195, 5918, 6112
 5424, 6054, 5918, 4793
 5425, 6328, 6228, 4792
 5426, 8724, 5900, 6169
 5427, 6130, 5990, 5978
 5428, 6489, 6305, 4795
 5429, 6931, 6778, 4796
 5430, 7558, 7426, 4782
 5431, 8054, 7969, 7777
 5432, 8634, 8570, 8618
 5433, 8570, 4802, 8525
 5434, 8596, 4817, 8552
 5435, 8646, 8617, 8596
 5436, 7810, 7701, 4804
 5437, 7397, 7283, 4805
 5438, 7089, 4806, 6958
 5439, 7218, 6416, 4806
 5440, 6334, 6195, 4807
 5441, 6299, 5882, 4808
 5442, 5978, 4794, 5914
 5443, 6164, 4809, 5976
 5444, 6446, 6290, 4825
 5445, 8462, 4811, 7434
 5446, 8269, 4813, 8170
 5447, 8377, 8105, 8170
 5448, 8493, 8459, 4814
 5449, 8438, 8388, 4832
 5450, 8552, 8439, 4818
 5451, 8324, 4833, 8251
 5452, 8390, 8293, 4819
 5453, 7900, 7818, 7732
 5454, 7471, 4821, 7279
 5455, 7508, 4822, 7408
 5456, 6317, 6202, 4823
 5457, 5755,  555,  554
 5458, 5755, 4839,  555
 5459, 5976, 4809, 5968
 5460, 6165, 6076, 4825
 5461, 6509, 4841, 6366
 5462, 7152, 6977, 4826
 5463, 8594, 8432, 8474
 5464, 8475, 8432, 4828
 5465, 8581, 8493, 4814
 5466, 8712, 4830, 8649
 5467, 8351, 8321, 4850
 5468, 8203, 8122, 4834
 5469, 8122, 7858, 4834
 5470, 7858, 4835, 7818
 5471, 7849, 4836, 7666
 5472, 7855, 4837, 7854
 5473, 6187, 6106, 4838
 5474, 5892, 4824, 5847
 5475, 6077, 6070, 4841
 5476, 6508, 6366, 6230
 5477, 7004, 6785, 4842
 5478, 8597, 4843, 8558
 5479, 8571, 4844, 8536
 5480, 8497, 4845, 8443
 5481, 8658, 8649, 8628
 5482, 8669, 8623, 8657
 5483, 8241, 8166, 8184
 5484, 8268, 8241, 8134
 5485, 8125, 4868, 7995
 5486, 8181, 8125, 8070
 5487, 7963, 7819, 4853
 5488, 6352, 6245, 4854
 5489, 6140, 4855, 6027
 5490, 5864, 4856, 5832
 5491, 5901, 4840, 5844
 5492, 6167, 5989, 6071
 5493, 7759, 7671, 7551
 5494, 7172, 7004, 4842
 5495, 7826, 7751, 4860
 5496, 8073, 8005, 4861
 5497, 8395, 8335, 8273
 5498, 8473, 8430, 4863
 5499, 8650, 8631, 4864
 5500, 8512, 8424, 8470
 5501, 8124, 7925, 8071
 5502, 7925, 7843, 4869
 5503, 7843, 7613, 7711
 5504, 7613, 7432, 4870
 5505, 6612, 4871, 6542
 5506, 6555, 6341, 6530
 5507, 6136, 4873, 5956
 5508, 6212, 6126, 4874
 5509, 5958, 4875, 5728
 5510, 5948, 5840, 5928
 5511, 6306, 6018, 4877
 5512, 6206, 4879, 6132
 5513, 6723, 4880, 6575
 5514, 7223, 4881, 7054
 5515, 7500, 4882, 7336
 5516, 7832, 4883, 7731
 5517, 8042, 4884, 7976
 5518, 7636, 7513, 4885
 5519, 7159, 6967, 4886
 5520, 6513, 6422, 4887
 5521, 7196, 6854, 4888
 5522, 7572, 7318, 4889
 5523, 8533, 7612, 4890
 5524, 7899, 7823, 7738
 5525, 7647, 7460, 7374
 5526, 7193, 7066, 7000
 5527, 6901, 6596, 6733
 5528, 6155, 4895, 6100
 5529, 6590, 4896, 5963
 5530, 6291, 6071, 4898
 5531, 6163, 4898, 5977
 5532, 6326, 6264, 4930
 5533, 7416, 4900, 7298
 5534, 7780, 7652, 4901
 5535, 8114, 8073, 4861
 5536, 8396, 8336, 8221
 5537, 8630, 8556, 8599
 5538, 8671, 8650, 4864
 5539, 8675, 8655, 8513
 5540, 8541, 8299, 8405
 5541, 7964, 7469, 7540
 5542, 7540, 7469, 4911
 5543, 7346, 4943, 7073
 5544, 7222, 7073, 4912
 5545, 6933, 4913, 6622
 5546, 6618, 4914, 6560
 5547, 6599, 4915, 6448
 5548, 6236, 6215, 4916
 5549, 6116, 4917, 6031
 5550, 6913, 6753, 4918
 5551, 6529, 4919, 6353
 5552, 6688, 4920, 6567
 5553, 7697, 7378, 7589
 5554, 7543, 4922, 7454
 5555, 7836, 7743, 7675
 5556, 8032, 4924, 8030
 5557, 8592, 4925, 8511
 5558, 7523, 7488, 4957
 5559, 7251, 6980, 4927
 5560, 6461, 6389, 4928
 5561, 5977, 4898, 5969
 5562, 6162, 6078, 4930
 5563, 8710, 6470, 4930
 5564, 7007, 6809, 4931
 5565, 8088, 7868, 7962
 5566, 8567, 8476, 8510
 5567, 8562, 8433, 4934
 5568, 8656, 4935, 8627
 5569, 8695, 8683, 4936
 5570, 8696, 8679, 8674
 5571, 8582, 8494, 8454
 5572, 8365, 8263, 8309
 5573, 7708, 4974, 7481
 5574, 7817, 7597, 4942
 5575, 7596, 7371, 7481
 5576, 7371, 4944, 7242
 5577, 7190, 4945, 6990
 5578, 6929, 4946, 6761
 5579, 6818, 4947, 6770
 5580, 6988, 4948, 6985
 5581, 7151, 4949, 7096
 5582, 7629, 7410, 7328
 5583, 7180, 4951, 7100
 5584, 7589, 7476, 4952
 5585, 7863, 7786, 7665
 5586, 7928, 4954, 7836
 5587, 8547, 4955, 8173
 5588, 8598, 8560, 4956
 5589, 7488, 7400, 4957
 5590, 7013, 6805, 4958
 5591, 6483, 6282, 4959
 5592, 5893, 4929, 5843
 5593, 6079, 6075, 4961
 5594, 6507, 6367, 6229
 5595, 7002, 6786, 4962
 5596, 8225, 8121, 8171
 5597, 8613, 8535, 4965
 5598, 8463, 4965, 8381
 5599, 8588, 8508, 4966
 5600, 8685, 8638, 4967
 5601, 8692, 8653, 8681
 5602, 8693, 8593, 8608
 5603, 8483, 8385, 4939
 5604, 8451, 8426, 8372
 5605, 7884, 7650, 7784
 5606, 7784, 7650, 4974
 5607, 7822, 5007, 7770
 5608, 7611, 4976, 7504
 5609, 7555, 4977, 7415
 5610, 7436, 4978, 7129
 5611, 8004, 7983, 7873
 5612, 7921, 4979, 7873
 5613, 7722, 4981, 7629
 5614, 7923, 4981, 7851
 5615, 7840, 4983, 7664
 5616, 7990, 7981, 4983
 5617, 8515, 8358, 8375
 5618, 8465, 8322, 4986
 5619, 8235, 8179, 5018
 5620, 8222, 8108, 4988
 5621, 7578, 7462, 7366
 5622, 7095, 4990, 6843
 5623, 5909, 5903, 4960
 5624, 8715, 5947, 6082
 5625, 6459, 6292, 5024
 5626, 7170, 7002, 4962
 5627, 7827, 7753, 4994
 5628, 8072, 8008, 4995
 5629, 8279, 4996, 8231
 5630, 8437, 8383, 4997
 5631, 8684, 8678, 8659
 5632, 8672, 4999, 8651
 5633, 8699, 8694, 5001
 5634, 8632, 8564, 5001
 5635, 8403, 8348, 8282
 5636, 8214, 8207, 8128
 5637, 8084, 7867, 8013
 5638, 8013, 7867, 5006
 5639, 8029, 7996, 5039
 5640, 7979, 5008, 7766
 5641, 7712, 7527, 5009
 5642, 7617, 7527, 7382
 5643, 7747, 7507, 7601
 5644, 8018, 5012, 7924
 5645, 8035, 5013, 7993
 5646, 8031, 5014, 7991
 5647, 8147, 8043, 8116
 5648, 8291, 8257, 8217
 5649, 8314, 8247, 5017
 5650, 8179, 8130, 5018
 5651, 7779, 7695, 5050
 5652, 7545, 5020, 7462
 5653, 7510, 5021, 7365
 5654, 5947, 5845, 5022
 5655, 6232, 5984, 6064
 5656, 6763, 6361, 5055
 5657, 7228, 5024, 7126
 5658, 8044, 7952, 7877
 5659, 8194, 8040, 5026
 5660, 8340, 8278, 8178
 5661, 8620, 8576, 8478
 5662, 8680, 8666, 8609
 5663, 8651, 8590, 8586
 5664, 8502, 5031, 8442
 5665, 8507, 8347, 8397
 5666, 8431, 8402, 8348
 5667, 8338, 5035, 8271
 5668, 7942, 5035, 7910
 5669, 7909, 7791, 7657
 5670, 7909, 5069, 7791
 5671, 7598, 7354, 7239
 5672, 7239, 7125, 5040
 5673, 7238, 5040, 7125
 5674, 7085, 6947, 6777
 5675, 8210, 8138, 5042
 5676, 8154, 8049, 5044
 5677, 7935, 7514, 7602
 5678, 7774, 5045, 7602
 5679, 8332, 8212, 7956
 5680, 8550, 5048, 8289
 5681, 7998, 7929, 5080
 5682, 7695, 7590, 7402
 5683, 7331, 7183, 6806
 5684, 6841, 6281, 5052
 5685, 5984, 5022, 5970
 5686, 6166, 6086, 5054
 5687, 6517, 6361, 6247
 5688, 7006, 6782, 5055
 5689, 8384, 5057, 8298
 5690, 8342, 8312, 5058
 5691, 8382, 5058, 8357
 5692, 8491, 5059, 8455
 5693, 8645, 5060, 8607
 5694, 8484, 8441, 8389
 5695, 8323, 5062, 8288
 5696, 8283, 8226, 8163
 5697, 8141, 8011, 8079
 5698, 7769, 5065, 7763
 5699, 7910, 7816, 7679
 5700, 7538, 5067, 7483
 5701, 7516, 6211, 7354
 5702, 7516, 7354, 5070
 5703, 6118, 5102, 6030
 5704, 6909, 6743, 6118
 5705, 6547, 6373, 6231
 5706, 6746, 6365, 6535
 5707, 6885, 5074, 6679
 5708, 7174, 5075, 7056
 5709, 7588, 7224, 7459
 5710, 8048, 7550, 7765
 5711, 8315, 8180, 8168
 5712, 7929, 7797, 5080
 5713, 7489, 7475, 5081
 5714, 7131, 6830, 5082
 5715, 6460, 6387, 5083
 5716, 5894, 5053, 5846
 5717, 8730, 5902, 6103
 5718, 6510, 6147, 6304
 5719, 7249, 5086, 7127
 5720, 7450, 7342, 5087
 5721, 8195, 5088, 8117
 5722, 8398, 8357, 8311
 5723, 8455, 8398, 5090
 5724, 8600, 8458, 8498
 5725, 8287, 8284, 5093
 5726, 8188, 5093, 8131
 5727, 8238, 8183, 8132
 5728, 8086, 7920, 8011
 5729, 7539, 5096, 7467
 5730, 7357, 7230, 7079
 5731, 6932, 5098, 6624
 5732, 6949, 6566, 6649
 5733, 5949, 5927, 5839
 5734, 6030, 5927, 5949
 5735, 6036, 5949, 5133
 5736, 6066, 5103, 6036
 5737, 6219, 5104, 6053
 5738, 6469, 6357, 6208
 5739, 6795, 6740, 6722
 5740, 7744, 7340, 7369
 5741, 7587, 5108, 7339
 5742, 8026, 7787, 8014
 5743, 8001, 7912, 5111
 5744, 7838, 7760, 5111
 5745, 7290, 6968, 5113
 5746, 6511, 6420, 5114
 5747, 5902, 5870, 5115
 5748, 6103, 6011, 5116
 5749, 6127, 6011, 6104
 5750, 6942, 6690, 5117
 5751, 7526, 7411, 5118
 5752, 8053, 7968, 7869
 5753, 8167, 8102, 5120
 5754, 8369, 8316, 5121
 5755, 8417, 8353, 8308
 5756, 8232, 8169, 8104
 5757, 8078, 8020, 7999
 5758, 7831, 5125, 7781
 5759, 7987, 7417, 7420
 5760, 7349, 7123, 7236
 5761, 6616, 5128, 6546
 5762, 6554, 6531, 6339
 5763, 6138, 5130, 6059
 5764, 6364, 6224, 6124
 5765, 5757,  623,  622
 5766, 5879, 5737, 5752
 5767, 5939, 5752, 5784
 5768, 6131, 5995, 5985
 5769, 6710, 6156, 5442
 5770, 7057, 6734, 6902
 5771, 7581, 7455, 5138
 5772, 7879, 7495, 7698
 5773, 8082, 8015, 5140
 5774, 7704, 7610, 5142
 5775, 7157, 5143, 6968
 5776, 6680, 5144, 6511
 5777, 6938, 6216, 6336
 5778, 7247, 7178, 5148
 5779, 7741, 7526, 7608
 5780, 7967, 5120, 7869
 5781, 8281, 8167, 8227
 5782, 8423, 5152, 8401
 5783, 8488, 8446, 5153
 5784, 8307, 8146, 8262
 5785, 8076, 8002, 5155
 5786, 7748, 7554, 5126
 5787, 7417, 7360, 7304
 5788, 7148, 6993, 5158
 5789, 6351, 5159, 6243
 5790, 6141, 5159, 6032
 5791, 5866, 5160, 5751
 5792, 5721, 5161,  628
 5793, 5906, 5867, 5162
 5794, 6914, 6534, 5163
 5795, 7244, 7124, 5164
 5796, 7812, 5165, 7678
 5797, 8090, 7941, 5166
 5798, 8254, 8204, 5167
 5799, 8409, 8373, 5168
 5800, 8467, 8453, 5170
 5801, 8394, 8374, 8330
 5802, 7984, 7975, 5172
 5803, 7533, 5173, 7480
 5804, 7406, 7071, 7250
 5805, 6941, 6701, 5175
 5806, 6160, 5176, 6108
 5807, 6032, 5931, 5862
 5808, 5751, 5746,  630
 5809, 7368, 5966, 5178
 5810, 6983, 6914, 5163
 5811, 7362, 7244, 5164
 5812, 7908, 7813, 7536
 5813, 8246, 8186, 8136
 5814, 8359, 8303, 8218
 5815, 8490, 8449, 8368
 5816, 8421, 8306, 8280
 5817, 8236, 8112, 8177
 5818, 7887, 7790, 7662
 5819, 7620, 7394, 7487
 5820, 7058, 6895, 6716
 5821, 6525, 6329, 6268
 5822, 6200, 6055, 6113
 5823, 6313, 6199, 5192
 5824, 6343, 6242, 5193
 5825, 7609, 7509, 5194
 5826, 7835, 7742, 5195
 5827, 8152, 7953, 8064
 5828, 8296, 8233, 5197
 5829, 8371, 5198, 8275
 5830, 8472, 8450, 5199
 5831, 8526, 8259, 8362
 5832, 8668, 8176, 8647
 5833, 8728, 7974, 5202
 5834, 7494, 7261, 7394
 5835, 7091, 6959, 6748
 5836, 6569, 6226, 6329
 5837, 6198, 5917, 6114
 5838, 5743,  634, 5730
 5839, 6345, 6241, 5208
 5840, 6930, 5209, 6741
 5841, 7922, 7771, 5210
 5842, 8297, 8224, 8264
 5843, 8202, 5212, 8139
 5844, 8220, 5213, 8192
 5845, 8429, 8414, 8364
 5846, 8471, 5215, 8427
 5847, 8583, 5216, 8489
 5848, 8334, 7702, 7897
 5849, 7725, 7284, 7619
 5850, 7219, 6959, 5204
 5851, 7086, 6520, 6417
 5852, 6333, 6198, 5206
 5853, 5793, 5731,  594
 5854, 5919, 5868, 5223
 5855, 6347, 5224, 6217
 5856, 6745, 6588, 5225
 5857, 7367, 5226, 7248
 5858, 7944, 5227, 7915
 5859, 8248, 8192, 8140
 5860, 8302, 8248, 5229
 5861, 8714, 8520, 5231
 5862, 8392, 8329, 5231
 5863, 8245, 8191, 5232
 5864, 7820, 7649, 7733
 5865, 7734, 7470, 7649
 5866, 7890, 7087, 5220
 5867, 6581, 6201, 6318
 5868, 6025, 5929, 5238
 5869, 5908, 5887, 5239
 5870, 6348, 6102, 5240
 5871, 6738, 6574, 5241
 5872, 7248, 7111, 5242
 5873, 7627, 7528, 5243
 5874, 7955, 7853, 5244
 5875, 8172, 8107, 5245
 5876, 8370, 8318, 5246
 5877, 8482, 8457, 5248
 5878, 8290, 8142, 8245
 5879, 8060, 7859, 5233
 5880, 7992, 7845, 7919
 5881, 8126, 8098, 5252
 5882, 6635, 6372, 6442
 5883, 6026, 5254, 5859
 5884, 6218, 6121, 6119
 5885, 6222, 6121, 5257
 5886, 7390, 7112, 7090
 5887, 7237, 7112, 5259
 5888, 7893, 7783, 7656
 5889, 8185, 8129, 8057
 5890, 8356, 8292, 8239
 5891, 8460, 5263, 7721
 5892, 8468, 8416, 8457
 5893, 8456, 8416, 5265
 5894, 8591, 8100, 5266
 5895, 7894, 5267, 7866
 5896, 7705, 5268, 7630
 5897, 6544, 6244, 6350
 5898, 6338, 6180, 6244
 5899, 6135, 5955, 6057
 5900, 5841, 5788, 5761
 5901, 5761, 5725, 5274
 5902, 5779,  606, 5735
 5903, 5874, 5754, 5779
 5904, 6355, 6307, 6170
 5905, 6158, 6061, 6035
 5906, 6541, 5380, 6433
 5907, 7289, 6541, 6669
 5908, 6768, 6691, 5318
 5909, 6314, 6204, 5277
 5910, 5996, 5988, 5296
 5911, 5884, 5770, 5742
 5912, 5742,  610,  609
 5913, 6579, 6153, 6300
 5914, 7049, 6893, 6728
 5915, 7359, 6997, 5280
 5916, 7273, 5281, 7267
 5917, 6956, 6773, 5289
 5918, 7063, 6773, 6956
 5919, 6715, 6438, 6297
 5920, 6715, 6585, 6438
 5921, 6002, 5982, 5286
 5922, 6289, 5896, 5856
 5923, 6678, 6496, 6149
 5924, 7686, 7567, 7275
 5925, 7567, 7431, 7275
 5926, 7121, 6928, 5293
 5927, 6594, 6322, 5294
 5928, 6190, 6042, 6098
 5929, 6134, 5988, 5996
 5930, 6047, 5297, 5907
 5931, 6220, 6123, 5298
 5932, 6917, 5299, 6736
 5933, 7395, 5300, 7216
 5934, 7773, 7683, 5301
 5935, 7401, 5302, 7200
 5936, 7524, 7496, 5303
 5937, 7515, 5304, 7327
 5938, 7505, 5305, 7313
 5939, 7628, 5306, 7449
 5940, 7615, 5307, 7448
 5941, 7796, 5309, 7729
 5942, 7478, 5309, 7381
 5943, 7389, 7197, 5311
 5944, 6620, 6532, 5311
 5945, 6557, 6143, 6327
 5946, 6767, 6742, 6125
 5947, 6571, 6204, 6314
 5948, 7501, 6665, 5319
 5949, 7472, 5320, 7387
 5950, 7546, 7458, 7522
 5951, 8721, 7132, 7010
 5952, 6774, 5323, 6494
 5953, 6831, 6650, 6479
 5954, 6479, 6400, 5327
 5955, 5907, 5869, 5328
 5956, 6939, 6792, 5330
 5957, 6736, 6573, 5330
 5958, 6816, 5331, 6685
 5959, 7229, 5332, 7109
 5960, 6810, 5333, 6661
 5961, 6984, 5334, 6835
 5962, 7113, 6969, 5335
 5963, 7118, 6961, 5336
 5964, 7312, 7156, 5337
 5965, 7448, 7324, 7160
 5966, 6966, 5339, 6856
 5967, 7130, 6833, 5341
 5968, 6804, 5341, 6659
 5969, 7243, 6992, 6935
 5970, 6897, 6557, 5312
 5971, 6759, 6686, 5345
 5972, 6771, 6214, 6356
 5973, 6960, 5349, 6876
 5974, 6970, 5350, 6847
 5975, 7144, 6825, 5352
 5976, 6815, 5352, 6651
 5977, 7098, 6880, 6789
 5978, 6150, 5354, 6088
 5979, 6755, 6406, 6577
 5980, 6006, 5967, 5359
 5981, 6488, 5360, 6399
 5982, 6287, 5361, 6266
 5983, 6269, 5362, 6249
 5984, 8521, 7109, 5363
 5985, 6275, 5364, 6254
 5986, 6454, 5365, 6381
 5987, 6503, 5366, 6411
 5988, 6540, 5367, 6434
 5989, 6873, 6697, 5368
 5990, 7041, 6855, 6682
 5991, 6514, 5370, 6419
 5992, 6462, 5371, 6386
 5993, 6283, 5372, 6258
 5994, 7764, 5373, 7681
 5995, 7497, 7199, 7399
 5996, 6286, 5375, 6260
 5997, 6465, 5376, 6388
 5998, 6516, 5377, 6421
 5999, 6502, 5381, 6410
 6000, 6449, 5382, 6380
 6001, 6270, 5383, 6253
 6002, 6704, 6563, 6395
 6003, 8733, 5897, 6183
 6004, 5981, 5386, 5923
 6005, 6276, 6173, 5387
 6006, 6705, 6396, 6564
 6007, 7104, 6790, 6881
 6008, 7370, 7269, 7084
 6009, 7651, 5403, 7575
 6010, 7943, 7651, 7927
 6011, 6179, 6094, 5397
 6012, 6475, 6274, 5399
 6013, 7021, 6811, 5400
 6014, 7521, 7404, 5401
 6015, 7745, 7693, 7583
 6016, 7110, 6757, 6911
 6017, 7674, 7110, 6911
 6018, 6453, 6382, 5408
 6019, 7253, 6986, 5409
 6020, 7525, 7521, 5401
 6021, 7898, 7794, 7889
 6022, 7441, 7297, 7145
 6023, 6335, 6234, 6128
 6024, 6335, 5423, 6234
 6025, 6499, 6412, 5417
 6026, 7164, 6971, 5418
 6027, 7637, 7517, 5419
 6028, 8062, 7985, 5421
 6029, 7576, 7297, 5412
 6030, 6915, 6591, 6757
 6031, 6020, 5434, 5891
 6032, 6097, 5946, 5424
 6033, 6537, 6435, 5426
 6034, 7153, 6964, 5427
 6035, 7633, 7506, 5428
 6036, 8063, 5430, 7914
 6037, 7986, 7895, 5431
 6038, 7206, 7052, 6890
 6039, 6441, 6368, 6210
 6040, 5782, 5776,  617
 6041, 5776, 5773,  618
 6042, 5784,  619, 5773
 6043, 7194, 6867, 5435
 6044, 7569, 7306, 5436
 6045, 8190, 8144, 7624
 6046, 8050, 7959, 7857
 6047, 7807, 7592, 7699
 6048, 7326, 7241, 7052
 6049, 6735, 6598, 6391
 6050, 6101, 5962, 6046
 6051, 5938, 5773, 5885
 6052, 6696, 5445, 6539
 6053, 7155, 5446, 6962
 6054, 7710, 7626, 5447
 6055, 8045, 7752, 8007
 6056, 7954, 7926, 5450
 6057, 7278, 7210, 5450
 6058, 6899, 6732, 5451
 6059, 6100, 6045, 5963
 6060, 6539, 6432, 5454
 6061, 7165, 6962, 5455
 6062, 7809, 7710, 5447
 6063, 8145, 8091, 7951
 6064, 7668, 5458, 7579
 6065, 7036, 6822, 6606
 6066, 6570, 6246, 6178
 6067, 6019, 5945, 5889
 6068, 6501, 6409, 5463
 6069, 7293, 6973, 5464
 6070, 7833, 5465, 7757
 6071, 7939, 7788, 7881
 6072, 7444, 7299, 7146
 6073, 7107, 6758, 6912
 6074, 6315, 6129, 6246
 6075, 5785,  573,  572
 6076, 6451, 6379, 5472
 6077, 7143, 6827, 5473
 6078, 7638, 7473, 5474
 6079, 7865, 7844, 5476
 6080, 7694, 7443, 7577
 6081, 6916, 6589, 6758
 6082, 6337, 6235, 6109
 6083, 6836, 5481, 6702
 6084, 7141, 6814, 5482
 6085, 7465, 5483, 7265
 6086, 7688, 7580, 5484
 6087, 8022, 7824, 7864
 6088, 7204, 7050, 6891
 6089, 6440, 6369, 6209
 6090, 6015, 5489, 5890
 6091, 6393, 5490, 6181
 6092, 6787, 5491, 6672
 6093, 7077, 5492, 6953
 6094, 7427, 7271, 5493
 6095, 8208, 8109, 5494
 6096, 7332, 7245, 7050
 6097, 6731, 6392, 6626
 6098, 6099, 5964, 6043
 6099, 5934, 5774, 5877
 6100, 5745,  598,  597
 6101, 5802, 5800, 4623
 6102, 5803,   72, 5799
 6103, 5804,   70, 5798
 6104, 5805,   68, 5797
 6105, 5806,   66, 5796
 6106, 5807,   64, 5795
 6107, 5801, 4763, 5795
 6108, 5808,   62,   61
 6109, 5525,   59, 5508
 6110, 5509,   57, 5507
 6111, 5510,   55, 5506
 6112, 5516,   53, 5503
 6113, 5844, 5503, 5515
 6114, 5504,   51,   50
 6115, 5517,   48, 5513
 6116, 5518,   46, 5502
 6117, 5520, 5519,   44
 6118, 5520,   44,   43
 6119, 5521,   41, 5512
 6120, 5505,   40,   39
 6121, 5522,   37, 5500
 6122, 5524, 5523,   35
 6123, 5524,   35,   34
 6124, 5824,   31, 5823
 6125, 5822, 5813,   29
 6126, 5825,   27, 5811
 6127, 5826,   25, 5821
 6128, 5827,   24,   23
 6129, 5814,   22,   21
 6130, 5828,   20,   19
 6131, 5829,   16, 5818
 6132, 5815,   14, 5809
 6133, 5830,   12, 5817
 6134,   11,    6,  355
 6135,  420,    7,  421
 6136, 5640,  418,  419
 6137, 5641,  417, 5635
 6138, 5642,  414,  415
 6139, 5643,  412,  413
 6140, 5644,  410,  411
 6141, 5662, 5656,  409
 6142, 5663,  408, 5656
 6143, 5664,  406, 5655
 6144, 5665,  404, 5654
 6145, 5666,  402, 5653
 6146, 5667,  400, 5652
 6147, 5577,  398, 5551
 6148, 5578,  396, 5550
 6149, 5579,  393,  394
 6150, 5580,  391,  392
 6151, 5581,  389,  390
 6152, 5582,  387,  388
 6153, 5583,  387, 5582
 6154, 5584,  385, 5545
 6155, 5585,  383, 5544
 6156, 5586,  381, 5543
 6157, 5587,  379, 5542
 6158, 5588,  377, 5541
 6159, 5589,  375, 5540
 6160, 5590,  373, 5539
 6161, 5591,  370,  371
 6162, 5592,  368,  369
 6163, 5593,  366,  367
 6164, 5594, 5593, 5364
 6165, 5595,  364, 5535
 6166, 5596,  362, 5534
 6167, 5597,  360, 5533
 6168, 5598,  358, 5532
 6169, 5599,  356, 5531
 6170,  486,    8,  487
 6171, 5645,  484,  485
 6172, 5646,  483, 5639
 6173, 5647,  480,  481
 6174, 5648,  478,  479
 6175, 5649,  476,  477
 6176, 5668,  476, 5649
 6177, 5669,  474, 5661
 6178, 5670,  472, 5660
 6179, 5671,  470, 5659
 6180, 5672,  468, 5658
 6181, 5673,  466, 5657
 6182, 5600,  464, 5575
 6183, 5601,  462, 5574
 6184, 5602,  459,  460
 6185, 5603,  457,  458
 6186, 5604,  455,  456
 6187, 5605,  453,  454
 6188, 5606,  453, 5605
 6189, 5607,  451, 5569
 6190, 5608,  449, 5568
 6191, 5609,  447, 5567
 6192, 5610,  445, 5566
 6193, 5611,  443, 5565
 6194, 5612,  441, 5564
 6195, 5613,  439, 5563
 6196, 5614,  436,  437
 6197, 5615,  434,  435
 6198, 5616,  432,  433
 6199, 5617, 5616, 5390
 6200, 5618,  430, 5556
 6201, 5619,  428, 5554
 6202, 5620,  426, 5552
 6203, 5621,  424, 5527
 6204, 5622,  422, 5526
 6205,  552,    4,   75
 6206, 5623,  551, 5530
 6207, 5624,  549, 5529
 6208, 5625,  546,  547
 6209, 5626,  544,  545
 6210, 5627,  542,  543
 6211, 5628, 5627, 4627
 6212, 5629,  540, 5557
 6213, 5630,  538, 5576
 6214, 5631,  536, 5560
 6215, 5696,  534, 5559
 6216, 5697,  532, 5695
 6217, 5698,  530, 5694
 6218, 5699,  528, 5693
 6219, 5700,  525,  526
 6220, 5701,  523,  524
 6221, 5702,  521,  522
 6222, 5703, 5702, 4637
 6223, 5704,  519, 5675
 6224, 5705,  517, 5674
 6225, 5706,  515, 5676
 6226, 5707,  513, 5677
 6227, 5708,  511, 5678
 6228, 5709,  509, 5679
 6229, 5710,  507, 5680
 6230, 5711,  505, 5681
 6231, 5712,  502,  503
 6232, 5713,  500,  501
 6233, 5714,  498,  499
 6234, 5715, 5714, 4648
 6235, 5716,  496, 5685
 6236, 5717,  494, 5686
 6237, 5718,  492, 5687
 6238, 5719,  490, 5688
 6239, 5720, 5689, 4653
 6240, 5792,  553,    9
 6241,  556,  555, 4839
 6242, 5744,  556, 4839
 6243, 5728,  562,  561
 6244, 5760,  563,  562
 6245, 5786, 5724,  564
 6246, 5748,  568,  567
 6247, 5749,  571,  570
 6248, 5780,  572,  571
 6249, 5772,  573, 5471
 6250, 5768,  575,  574
 6251, 5727,  583,  582
 6252, 5722,  584,  583
 6253, 5750,  588, 4762
 6254, 5764,  590,  589
 6255, 5793,  594,   10
 6256,  597,  596, 5238
 6257, 5745,  597, 5238
 6258, 5725,  603,  602
 6259, 5761,  604,  603
 6260, 5788, 5735,  605
 6261, 5777,  609,  608
 6262, 5790,  612,  611
 6263, 5732,  613,  612
 6264, 5791,  614, 5416
 6265, 5741,  616,  615
 6266, 5726,  624,  623
 6267, 5723,  625,  624
 6268, 5751,  629, 5161
 6269, 5746,  631,  630
 6270,  559,  558, 4856
 6271, 5736,  587,  586
 6272,  600,  599, 5255
 6273, 5721,  628,  627
 6274, 5911, 5522, 5500
 6275, 5500,   37,   36
 6276, 5912, 5521, 5512
 6277, 5848, 5501, 5521
 6278, 5913, 5518, 5502
 6279, 5502,   46,   45
 6280, 5847, 5506, 5516
 6281, 5503,   53,   52
 6282, 5514,   50,   49
 6283, 5842, 5515, 5504
 6284, 5511,   39,   38
 6285, 5845, 5512, 5505
 6286, 5910, 5510, 5506
 6287, 5506,   55,   54
 6288, 6065, 5509, 5507
 6289, 5507,   57,   56
 6290, 5914, 5525, 5508
 6291, 5508,   59,   58
 6292, 5509,   58,   57
 6293, 6065, 5507, 4809
 6294, 5510,   56,   55
 6295, 5910, 5506, 5847
 6296, 5522, 5511,   38
 6297, 5511, 5022, 5505
 6298, 5912, 5848, 5521
 6299, 5512,   41,   40
 6300, 6161, 4898, 6071
 6301, 5513,   48,   47
 6302, 5517, 5514,   49
 6303, 6384, 5514, 6161
 6304, 5515, 5503,   52
 6305, 5515,   51, 5504
 6306, 5516,   54,   53
 6307, 5849, 5503, 5844
 6308, 5517,   49,   48
 6309, 5517, 5513, 4898
 6310, 5518,   47,   46
 6311, 5913, 5502, 5843
 6312, 5519,   45,   44
 6313, 5850, 5843, 5519
 6314, 5520,   43, 5501
 6315, 5909, 5850, 5520
 6316, 5521, 5501,   42
 6317, 5521,   42,   41
 6318, 5522,   38,   37
 6319, 5911, 5500, 5846
 6320, 5523,   36,   35
 6321, 5851, 5846, 5523
 6322, 5831,   34,   33
 6323, 5851, 5524, 5084
 6324, 5852, 5794, 5525
 6325, 5525,   60,   59
 6326, 5622, 5526, 5389
 6327, 5526,  422,  423
 6328, 6427, 5621, 5358
 6329, 5527,  424,  425
 6330, 6398, 5528, 5624
 6331, 5625, 5528, 4625
 6332, 5623,  550,  551
 6333, 6398, 5624, 4624
 6334, 5623, 5530, 4623
 6335, 5530,  551,  552
 6336, 5598, 5532, 5360
 6337, 5599, 5531, 5359
 6338, 5597, 5533, 5361
 6339, 6426, 5598, 5360
 6340, 5596, 5534, 5362
 6341, 6399, 5597, 5361
 6342, 5595, 5535, 5363
 6343, 6266, 5596, 5362
 6344, 5594,  365,  366
 6345, 6249, 5595, 5363
 6346, 6254, 5536, 5592
 6347, 5593, 5536, 5364
 6348, 6381, 5537, 5591
 6349, 5592, 5537, 5365
 6350, 6411, 5538, 5590
 6351, 5591, 5538, 5366
 6352, 5589, 5540, 5368
 6353, 6411, 5590, 5367
 6354, 5588, 5541, 5369
 6355, 6434, 5589, 5368
 6356, 5587, 5542, 5370
 6357, 7024, 5369, 6873
 6358, 5586, 5543, 5371
 6359, 7026, 5370, 6855
 6360, 5585, 5544, 5372
 6361, 6419, 5586, 5371
 6362, 5584, 5545, 5373
 6363, 6386, 5585, 5372
 6364, 7681, 5582, 5374
 6365, 6258, 5584, 5373
 6366, 7631, 5375, 7497
 6367, 7631, 5582, 5546
 6368, 6260, 5547, 5580
 6369, 5581, 5547, 5375
 6370, 6388, 5548, 5579
 6371, 5580, 5548, 5376
 6372, 6421, 5549, 5578
 6373, 5579, 5549, 5377
 6374, 5577, 5551, 5379
 6375, 6421, 5578, 5378
 6376, 5667, 5652, 5380
 6377, 7029, 5379, 6888
 6378, 6400, 5620, 5327
 6379, 5552,  426,  427
 6380, 5975, 5924, 5553
 6381, 5924, 5626, 5553
 6382, 5921, 5619, 5554
 6383, 5554,  428,  429
 6384, 5853, 5555, 5626
 6385, 8734, 5627, 5555
 6386, 6289, 5856, 5618
 6387, 5556,  430,  431
 6388, 6256, 5576, 5629
 6389, 5557,  540,  541
 6390, 5615, 5558,  434
 6391, 6255, 5558, 5615
 6392, 5696, 5695,  533
 6393, 5559,  534,  535
 6394, 5630, 5576, 4629
 6395, 6413, 5631, 4630
 6396, 5614, 5561,  436
 6397, 6382, 5561, 5614
 6398, 5613, 5563, 5417
 6399, 6412, 5562, 5613
 6400, 6412, 5613, 5417
 6401, 5563,  439,  440
 6402, 6435, 5612, 5426
 6403, 5564,  441,  442
 6404, 7025, 5435, 6867
 6405, 5565,  443,  444
 6406, 7027, 5144, 6851
 6407, 5566,  445,  446
 6408, 6420, 5609, 5114
 6409, 5567,  447,  448
 6410, 6387, 5608, 5083
 6411, 5568,  449,  450
 6412, 6259, 5607, 5052
 6413, 5569,  451,  452
 6414, 5604, 5570,  455
 6415, 7414, 5570, 4990
 6416, 5603, 5571,  457
 6417, 6261, 5571, 5603
 6418, 5602, 5572,  459
 6419, 6389, 5572, 5602
 6420, 5601, 5574, 4887
 6421, 6422, 5573, 5601
 6422, 6422, 5601, 4887
 6423, 5574,  462,  463
 6424, 7030, 4888, 6854
 6425, 5575,  464,  465
 6426, 5629, 5576,  539
 6427, 6383, 5630, 4629
 6428, 5577, 5550,  397
 6429, 5577,  397,  398
 6430, 5578, 5549,  395
 6431, 5578,  395,  396
 6432, 5579,  394, 5549
 6433, 6388, 5579, 5377
 6434, 5580,  392, 5548
 6435, 6260, 5580, 5376
 6436, 5581,  390, 5547
 6437, 7631, 5581, 5375
 6438, 5582,  388, 5546
 6439, 7681, 5583, 5582
 6440, 5583, 5545,  386
 6441, 5583,  386,  387
 6442, 5584, 5544,  384
 6443, 5584,  384,  385
 6444, 5585, 5543,  382
 6445, 5585,  382,  383
 6446, 5586, 5542,  380
 6447, 5586,  380,  381
 6448, 5587, 5541,  378
 6449, 5587,  378,  379
 6450, 5588, 5540,  376
 6451, 5588,  376,  377
 6452, 5589, 5539,  374
 6453, 5589,  374,  375
 6454, 5590, 5538,  372
 6455, 5590,  372,  373
 6456, 5591,  371, 5538
 6457, 6381, 5591, 5366
 6458, 5592,  369, 5537
 6459, 6254, 5592, 5365
 6460, 5593,  367, 5536
 6461, 8521, 5594, 5364
 6462, 5594, 5535,  365
 6463, 5594,  366, 5593
 6464, 5595, 5534,  363
 6465, 5595,  363,  364
 6466, 5596, 5533,  361
 6467, 5596,  361,  362
 6468, 5597, 5532,  359
 6469, 5597,  359,  360
 6470, 5598, 5531,  357
 6471, 5598,  357,  358
 6472, 5817, 5599, 5359
 6473, 5599,  355,  356
 6474, 5600, 5574,  463
 6475, 5600,  463,  464
 6476, 5601, 5573,  461
 6477, 5601,  461,  462
 6478, 5602,  460, 5573
 6479, 6389, 5602, 4928
 6480, 5603,  458, 5572
 6481, 6261, 5603, 4959
 6482, 5604,  456, 5571
 6483, 5604, 4990, 5570
 6484, 5605,  454, 5570
 6485, 7761, 5606, 5021
 6486, 5606, 5569,  452
 6487, 5606,  452,  453
 6488, 5607, 5568,  450
 6489, 5607,  450,  451
 6490, 5608, 5567,  448
 6491, 5608,  448,  449
 6492, 5609, 5566,  446
 6493, 5609,  446,  447
 6494, 5610, 5565,  444
 6495, 5610,  444,  445
 6496, 5611, 5564,  442
 6497, 5611,  442,  443
 6498, 5612, 5563,  440
 6499, 5612,  440,  441
 6500, 5613, 5562,  438
 6501, 5613,  438,  439
 6502, 5614,  437, 5562
 6503, 6382, 5614, 5408
 6504, 5615,  435, 5561
 6505, 6255, 5615, 5399
 6506, 5616,  433, 5558
 6507, 6564, 5617, 5390
 6508, 5617, 5556,  431
 6509, 5617,  432, 5616
 6510, 5618, 5554,  429
 6511, 5618,  429,  430
 6512, 5619, 5552,  427
 6513, 5619,  427,  428
 6514, 5620, 5527,  425
 6515, 5620,  425,  426
 6516, 5621, 5526,  423
 6517, 5621,  423,  424
 6518, 5650, 5389, 5640
 6519, 5622,  421,  422
 6520, 6425, 5623, 4623
 6521, 5623, 5529,  550
 6522, 5624, 5528,  548
 6523, 5624,  548,  549
 6524, 5625,  547, 5528
 6525, 5975, 5625, 4625
 6526, 5626,  545, 5553
 6527, 5853, 5626, 4626
 6528, 5627,  543, 5555
 6529, 6565, 5628, 4627
 6530, 5628, 5557,  541
 6531, 5628,  542, 5627
 6532, 5629,  539,  540
 6533, 5629, 5557, 4628
 6534, 5630, 5560,  537
 6535, 5630,  537,  538
 6536, 5631, 5559,  535
 6537, 5631,  535,  536
 6538, 5854, 5632, 5643
 6539, 8733, 5644, 5632
 6540, 5974, 5923, 5633
 6541, 5923, 5643, 5633
 6542, 6402, 5634, 5641
 6543, 5642, 5634, 5387
 6544, 5640, 5635,  418
 6545, 6402, 5641, 5388
 6546, 5648, 5636,  478
 6547, 5855, 5636, 5648
 6548, 5647, 5637,  480
 6549, 5972, 5922, 5637
 6550, 5646, 5639, 4684
 6551, 6403, 5638, 5646
 6552, 6403, 5646, 4684
 6553, 5639,  483,  484
 6554, 5650, 5640,  419
 6555, 6429, 5640, 5389
 6556, 5641, 5634,  416
 6557, 5641,  416,  417
 6558, 5642,  415, 5634
 6559, 5974, 5642, 5387
 6560, 5643,  413, 5633
 6561, 5854, 5643, 5386
 6562, 5644,  411, 5632
 6563, 6563, 5662, 5385
 6564, 5651,  485,  486
 6565, 6430, 5645, 4653
 6566, 5646, 5638,  482
 6567, 5646,  482,  483
 6568, 5647,  481, 5638
 6569, 5972, 5647, 4715
 6570, 5648,  479, 5637
 6571, 5855, 5648, 4745
 6572, 5649,  477, 5636
 6573, 6561, 5668, 5490
 6574, 5650,  419,  420
 6575, 5650, 5622, 5389
 6576, 5651,  486,  487
 6577, 5651, 4653, 5645
 6578, 7028, 5380, 6877
 6579, 5652,  400,  401
 6580, 5665, 5654, 5382
 6581, 6433, 5666, 5381
 6582, 5664, 5655, 5383
 6583, 6410, 5665, 5382
 6584, 5663, 5656, 5384
 6585, 6380, 5664, 5383
 6586, 5662,  409,  410
 6587, 6253, 5663, 5384
 6588, 5673, 5657, 5445
 6589, 5657,  466,  467
 6590, 6432, 5672, 5454
 6591, 5658,  468,  469
 6592, 6409, 5671, 5463
 6593, 5659,  470,  471
 6594, 6379, 5670, 5472
 6595, 5660,  472,  473
 6596, 6252, 5669, 5481
 6597, 5661,  474,  475
 6598, 5662,  410, 5644
 6599, 5662, 5644, 5385
 6600, 5663, 5655,  407
 6601, 5663,  407,  408
 6602, 5664, 5654,  405
 6603, 5664,  405,  406
 6604, 5665, 5653,  403
 6605, 5665,  403,  404
 6606, 5666, 5652,  401
 6607, 5666,  401,  402
 6608, 5667, 5551,  399
 6609, 5667,  399,  400
 6610, 5668, 5649, 5490
 6611, 5668, 5481, 5661
 6612, 5669, 5660,  473
 6613, 5669,  473,  474
 6614, 5670, 5659,  471
 6615, 5670,  471,  472
 6616, 5671, 5658,  469
 6617, 5671,  469,  470
 6618, 5672, 5657,  467
 6619, 5672,  467,  468
 6620, 7031, 5445, 6870
 6621, 5673, 5575,  465
 6622, 6262, 5676, 5705
 6623, 5674,  517,  518
 6624, 5703,  520,  521
 6625, 8713, 5704, 4638
 6626, 6390, 5677, 5706
 6627, 5676,  515,  516
 6628, 6423, 5707, 4641
 6629, 5677,  513,  514
 6630, 7032, 4642, 6860
 6631, 5678,  511,  512
 6632, 7033, 4643, 6865
 6633, 5679,  509,  510
 6634, 6431, 5710, 4644
 6635, 5680,  507,  508
 6636, 6408, 5711, 4645
 6637, 5681,  505,  506
 6638, 6408, 5682, 5711
 6639, 5712, 5682, 4646
 6640, 6378, 5683, 5712
 6641, 5713, 5683, 4647
 6642, 6251, 5684, 5713
 6643, 5714, 5684, 4648
 6644, 5857, 5686, 5716
 6645, 5685,  496,  497
 6646, 5971, 5687, 5717
 6647, 5686,  494,  495
 6648, 6401, 5718, 4651
 6649, 5687,  492,  493
 6650, 6428, 5719, 4652
 6651, 5688,  490,  491
 6652, 5720, 4653, 5651
 6653, 5689,  488,  489
 6654, 6257, 5690, 5701
 6655, 5702, 5690, 4637
 6656, 6385, 5691, 5700
 6657, 5701, 5691, 4636
 6658, 6418, 5692, 5699
 6659, 5700, 5692, 4635
 6660, 5698, 5694, 4633
 6661, 6418, 5699, 4634
 6662, 5697, 5695, 4632
 6663, 7034, 4633, 6858
 6664, 5696,  533,  534
 6665, 7035, 4632, 6868
 6666, 5696, 5559, 4631
 6667, 6436, 5696, 4631
 6668, 5697, 5694,  531
 6669, 5697,  531,  532
 6670, 5698, 5693,  529
 6671, 5698,  529,  530
 6672, 5699, 5692,  527
 6673, 5699,  527,  528
 6674, 5700,  526, 5692
 6675, 6385, 5700, 4635
 6676, 5701,  524, 5691
 6677, 6257, 5701, 4636
 6678, 5702,  522, 5690
 6679, 7493, 5703, 4637
 6680, 5703, 5675,  520
 6681, 5703,  521, 5702
 6682, 5704, 5674,  518
 6683, 5704,  518,  519
 6684, 5705,  516,  517
 6685, 5705, 5674, 4639
 6686, 5706,  514,  515
 6687, 5706, 5676, 4640
 6688, 5707,  512,  513
 6689, 5707, 5677, 4641
 6690, 5708,  510,  511
 6691, 5708, 5678, 4642
 6692, 5709,  508,  509
 6693, 5709, 5679, 4643
 6694, 5710,  506,  507
 6695, 5710, 5680, 4644
 6696, 5711,  504,  505
 6697, 5711, 5681, 4645
 6698, 5712,  503, 5682
 6699, 6378, 5712, 4646
 6700, 5713,  501, 5683
 6701, 6251, 5713, 4647
 6702, 5714,  499, 5684
 6703, 6562, 5715, 4648
 6704, 5715, 5685,  497
 6705, 5715,  498, 5714
 6706, 5716,  495,  496
 6707, 6288, 5685, 4649
 6708, 5717,  493,  494
 6709, 5925, 5686, 4650
 6710, 5718,  491,  492
 6711, 5718, 5687, 4651
 6712, 5719,  489,  490
 6713, 5719, 5688, 4652
 6714, 5720, 5651,  487
 6715, 5720,  488, 5689
 6716, 5781, 5721,  627
 6717, 6224, 5721, 5132
 6718, 5727, 5722,  583
 6719, 5739, 5722, 4621
 6720, 5726, 5723,  624
 6721, 5740, 5723, 4622
 6722, 6060, 4876, 6037
 6723, 5873, 5778, 5724
 6724, 5756, 5725,  602
 6725, 5959, 5725, 5756
 6726, 5757, 5726,  623
 6727, 5839, 5726, 5133
 6728, 5747, 5727,  582
 6729, 5838, 5727, 4734
 6730, 5760, 5728, 4875
 6731, 5738, 5728,  561
 6732, 5878, 5769, 5729
 6733, 5729,  593,  592
 6734, 5730,  634,  633
 6735, 5759,  633,  632
 6736, 6081, 5731, 5222
 6737, 5731,  595,  594
 6738, 5790, 5732,  612
 6739, 5834, 5734, 5732
 6740, 6263, 4778, 5932
 6741, 6196, 6111, 4793
 6742, 5734, 5416,  614
 6743, 5734,  613, 5732
 6744, 6061, 5275, 6035
 6745, 5876, 5779, 5735
 6746, 5766, 5736,  586
 6747, 6223, 5736, 4733
 6748, 5737,  622,  621
 6749, 5752, 5737,  621
 6750, 5958, 5738, 4874
 6751, 5738,  561,  560
 6752, 5961, 5739, 4621
 6753, 5961, 5766, 5739
 6754, 5960, 5781, 5740
 6755, 5740,  626,  625
 6756, 5791, 5741,  615
 6757, 5782, 5741, 5425
 6758, 5933, 5884, 5742
 6759, 5933, 5742, 5777
 6760, 5793, 5743, 5207
 6761, 5743,   10,  634
 6762, 5860, 5744, 4839
 6763, 5864, 5832, 4855
 6764, 5859, 5745, 5238
 6765, 5863, 5833, 5254
 6766, 5862, 5746, 5751
 6767, 5746, 5177,  631
 6768, 5872, 4734, 5747
 6769, 5747, 4734, 5727
 6770, 5789,  567,  566
 6771, 5935, 5748, 4897
 6772, 5944, 5749, 5787
 6773, 5780, 5749, 5462
 6774, 5865, 5750, 4762
 6775, 5861, 5764, 5750
 6776, 5751,  630,  629
 6777, 5866, 5751, 5161
 6778, 5752,  621,  620
 6779, 5939, 5879, 5752
 6780, 5753,  581,  580
 6781, 5767, 5753,  580
 6782, 5937, 5754, 5874
 6783, 5937, 5777, 5754
 6784, 5763, 5755,  554
 6785, 6080, 4838, 6028
 6786, 5858,  601,  600
 6787, 5959, 5756, 5273
 6788, 5757, 5133, 5726
 6789, 5757,  622, 5737
 6790, 5758,  577,  576
 6791, 5783, 5758,  576
 6792, 6265, 5177, 5931
 6793, 6199, 6113, 5192
 6794, 5760,  562, 5728
 6795, 5840, 5760, 4875
 6796, 5761,  603, 5725
 6797, 5841, 5761, 5274
 6798, 5935, 5762, 5748
 6799, 5762,  569,  568
 6800, 6080, 5763, 4823
 6801, 5763,  554,  553
 6802, 5764, 4778,  590
 6803, 5764,  589, 5750
 6804, 5956, 5765, 4856
 6805, 5765, 4874, 5738
 6806, 5766,  586,  585
 6807, 5766,  585, 5739
 6808, 5767,  580,  579
 6809, 5936, 5883, 5767
 6810, 5772, 5768,  574
 6811, 5783, 5768, 5480
 6812, 5792, 5769, 4808
 6813, 5769,    9,  593
 6814, 5770,  610, 5742
 6815, 5941, 5790, 5770
 6816, 5936, 5771, 5499
 6817, 5771,  579,  578
 6818, 5772,  574,  573
 6819, 5837, 5772, 5471
 6820, 5885, 5773, 5776
 6821, 5938, 5784, 5773
 6822, 5953, 5877, 5758
 6823, 5934, 5771, 5774
 6824, 6081, 5237, 6025
 6825, 5775, 5238,  596
 6826, 5952, 5885, 5776
 6827, 5776,  618,  617
 6828, 5777,  608, 5754
 6829, 5933, 5777, 5296
 6830, 5881, 5789, 5778
 6831, 5778,  566,  565
 6832, 5876, 5874, 5779
 6833, 5779,  607,  606
 6834, 5780,  571, 5749
 6835, 5835, 5785, 5780
 6836, 5781,  627,  626
 6837, 5781,  626, 5740
 6838, 5782,  617,  616
 6839, 5891, 5782, 5425
 6840, 5783,  576,  575
 6841, 5890, 5783, 5480
 6842, 5939, 5784, 5444
 6843, 5784,  620,  619
 6844, 5785, 5471,  573
 6845, 5785,  572, 5780
 6846, 5786, 4876, 5724
 6847, 5786,  564,  563
 6848, 5944, 5889, 5749
 6849, 5787,  570,  569
 6850, 5788, 5275, 5735
 6851, 5788,  605,  604
 6852, 5940, 5748, 5789
 6853, 5789, 5748,  567
 6854, 5790, 5407, 5732
 6855, 5790,  611, 5770
 6856, 5791,  615,  614
 6857, 5836, 5791, 5416
 6858, 5792,    9, 5769
 6859, 5882, 5792, 4808
 6860, 5793,   10, 5743
 6861, 5886, 5793, 5207
 6862, 8724, 5808, 5794
 6863, 5794,   60, 5525
 6864, 7477, 5796, 5807
 6865, 5795,   64,   63
 6866, 6250, 5797, 5806
 6867, 5796,   66,   65
 6868, 6376, 5798, 5805
 6869, 5797,   68,   67
 6870, 6404, 5804, 4685
 6871, 5798,   70,   69
 6872, 6424, 5803, 4654
 6873, 5799,   72,   71
 6874, 5802, 4623, 5530
 6875, 5800,   74,   73
 6876, 5808, 5801,   62
 6877, 6597, 5801, 4779
 6878, 5802, 5530,   75
 6879, 5802,   74, 5800
 6880, 5803,   73,   72
 6881, 5803, 5799, 4654
 6882, 5804,   71,   70
 6883, 5804, 5798, 4685
 6884, 5805,   69,   68
 6885, 5805, 5797, 4716
 6886, 5806,   67,   66
 6887, 5806, 5796, 4746
 6888, 5807,   65,   64
 6889, 5807, 5795, 4763
 6890, 5808,   61, 5794
 6891, 5808, 4779, 5801
 6892, 5815, 5809, 5328
 6893, 5809,   14,   13
 6894, 6119, 5812, 5256
 6895, 5810,   18,   17
 6896, 5966, 5825, 5178
 6897, 5811,   27,   26
 6898, 5828, 5812, 5239
 6899, 5812,   19,   18
 6900, 5813,   30,   29
 6901, 5867, 5813, 5162
 6902, 5819,   21,   20
 6903, 5868, 5820, 5814
 6904, 5815,   15,   14
 6905, 5869, 5815, 5328
 6906, 5870, 5831, 5816
 6907, 5816,   33,   32
 6908, 5830, 5817, 5359
 6909, 5817,   12,   11
 6910, 5829, 5818, 5297
 6911, 5818,   16,   15
 6912, 5828, 5819,   20
 6913, 5887, 5819, 5828
 6914, 5827, 5820, 5208
 6915, 5820,   22, 5814
 6916, 6242, 5826, 5193
 6917, 5821,   25,   24
 6918, 5822, 5162, 5813
 6919, 5822,   29,   28
 6920, 6104, 5824, 5145
 6921, 5823,   31,   30
 6922, 5824, 5816,   32
 6923, 5824,   32,   31
 6924, 5825,   28,   27
 6925, 5825, 5811, 5178
 6926, 5826, 5811,   26
 6927, 5826,   26,   25
 6928, 5827,   23, 5820
 6929, 6241, 5827, 5208
 6930, 5828,   19, 5812
 6931, 5887, 5828, 5239
 6932, 6115, 5829, 5297
 6933, 5829, 5810,   17
 6934, 5967, 5830, 5359
 6935, 5830, 5809,   13
 6936, 6377, 5524, 5831
 6937, 5831, 5524,   34
 6938, 5832, 4856,  558
 6939, 5832,  557, 5744
 6940, 5833, 5255,  599
 6941, 5833,  598, 5745
 6942, 5834, 5416, 5734
 6943, 6093, 5407, 5942
 6944, 6084, 5993, 5835
 6945, 5835, 5471, 5785
 6946, 5915, 5836, 5416
 6947, 5992, 5836, 5915
 6948, 6009, 5837, 5916
 6949, 5837, 5480, 5768
 6950, 5951, 5838, 4734
 6951, 5838, 4621, 5722
 6952, 5949, 5839, 5133
 6953, 5839, 4622, 5723
 6954, 5928, 5840, 4875
 6955, 5840, 4876, 5786
 6956, 5926, 5841, 5274
 6957, 5841, 5275, 5788
 6958, 5901, 5842, 4857
 6959, 5901, 5844, 5842
 6960, 5893, 5843, 5850
 6961, 5913, 5843, 4929
 6962, 5849, 5844, 4840
 6963, 5844, 5515, 5842
 6964, 6005, 5947, 5022
 6965, 5912, 5845, 4991
 6966, 5894, 5846, 5851
 6967, 5911, 5846, 5053
 6968, 5892, 5847, 5849
 6969, 5910, 5847, 4824
 6970, 5903, 5848, 4991
 6971, 5909, 5848, 5903
 6972, 5849, 5516, 5503
 6973, 5892, 5849, 4840
 6974, 5850, 5519, 5520
 6975, 5893, 5850, 4960
 6976, 5851, 5523, 5524
 6977, 5894, 5851, 5084
 6978, 5900, 5852, 4794
 6979, 8724, 5852, 5900
 6980, 5895, 5853, 4626
 6981, 8734, 5853, 5895
 6982, 5897, 5854, 5386
 6983, 8733, 5854, 5897
 6984, 5999, 5899, 4745
 6985, 8732, 5855, 5899
 6986, 6289, 6184, 5896
 6987, 5856, 5286, 5554
 6988, 6288, 5898, 5857
 6989, 5857, 4650, 5686
 6990, 6213, 5255, 5955
 6991, 5858, 5273, 5756
 6992, 5859, 5254, 5833
 6993, 5929, 5859, 5238
 6994, 5930, 5860, 4839
 6995, 6106, 5930, 4838
 6996, 6142, 6033, 4761
 6997, 6107, 5932, 6033
 6998, 5862, 5177, 5746
 6999, 6141, 6032, 5160
 7000, 6057, 5955, 5863
 7001, 5863, 5255, 5833
 7002, 6177, 4855, 6140
 7003, 6058, 5956, 5864
 7004, 6137, 5954, 4732
 7005, 5865, 4761, 5750
 7006, 5957, 5866, 5161
 7007, 6138, 5957, 5131
 7008, 6808, 5162, 6007
 7009, 5867, 5145, 5823
 7010, 6051, 5223, 5908
 7011, 5868, 5208, 5820
 7012, 6800, 5328, 6006
 7013, 5869, 5297, 5818
 7014, 6011, 5902, 5115
 7015, 6377, 5870, 5902
 7016, 5879, 5871, 5737
 7017, 5904, 5871, 5134
 7018, 5905, 5872, 4735
 7019, 5872, 5747, 5753
 7020, 5873, 5724, 4876
 7021, 5881, 5873, 4877
 7022, 6307, 5276, 6170
 7023, 6013, 5937, 5874
 7024, 5917, 5875, 5192
 7025, 5875, 5207, 5743
 7026, 5876, 5735, 5275
 7027, 5876, 5276, 5874
 7028, 5964, 5877, 5489
 7029, 6553, 5877, 5964
 7030, 5918, 5878, 4793
 7031, 5878, 4808, 5769
 7032, 6017, 5134, 5879
 7033, 5879, 5134, 5871
 7034, 6590, 5880, 5935
 7035, 5944, 5880, 5453
 7036, 6306, 4877, 6171
 7037, 6018, 5940, 5881
 7038, 6334, 4808, 6195
 7039, 5882, 4823, 5763
 7040, 6012, 4735, 5883
 7041, 5883, 4735, 5872
 7042, 6592, 5884, 5933
 7043, 5941, 5884, 5398
 7044, 5962, 5885, 5434
 7045, 6552, 5885, 5962
 7046, 6333, 5207, 6198
 7047, 5886, 5222, 5731
 7048, 6048, 5908, 5239
 7049, 5887, 5223, 5819
 7050, 6042, 6014, 5398
 7051, 6094, 5942, 6014
 7052, 6096, 5945, 6019
 7053, 5889, 5462, 5749
 7054, 6095, 5943, 5479
 7055, 5953, 5890, 5489
 7056, 5952, 5891, 5434
 7057, 5946, 5891, 5425
 7058, 5998, 5892, 4840
 7059, 6076, 5998, 4841
 7060, 6004, 5893, 4960
 7061, 6078, 6004, 4961
 7062, 6010, 5894, 5084
 7063, 6086, 6010, 5085
 7064, 6003, 5895, 4626
 7065, 6185, 5895, 6090
 7066, 6184, 6089, 5896
 7067, 5896, 5286, 5856
 7068, 6001, 5897, 5386
 7069, 6183, 5897, 6088
 7070, 6288, 6182, 5898
 7071, 6087, 6000, 5898
 7072, 6085, 5899, 5999
 7073, 8732, 5899, 6181
 7074, 5990, 5900, 4794
 7075, 6083, 5900, 5990
 7076, 5989, 5901, 4857
 7077, 6070, 5901, 5989
 7078, 6103, 5902, 6011
 7079, 6377, 5902, 5084
 7080, 5991, 5903, 4991
 7081, 6075, 5903, 5991
 7082, 5904, 5133, 5871
 7083, 6053, 5904, 5134
 7084, 6052, 5905, 4735
 7085, 6034, 5951, 4734
 7086, 6719, 6534, 5146
 7087, 5906, 5145, 5867
 7088, 6737, 6556, 5298
 7089, 5907, 5297, 5869
 7090, 6102, 6051, 5908
 7091, 5908, 5223, 5887
 7092, 5909, 4960, 5850
 7093, 5909, 5501, 5848
 7094, 5976, 5968, 5910
 7095, 5976, 5910, 4824
 7096, 5984, 5970, 5911
 7097, 5984, 5911, 5053
 7098, 5912, 4991, 5848
 7099, 5912, 5512, 5845
 7100, 5977, 5969, 5913
 7101, 5977, 5913, 4929
 7102, 6065, 5978, 5914
 7103, 5914, 4794, 5525
 7104, 5915, 5416, 5834
 7105, 5992, 5915, 5415
 7106, 6009, 5916, 5470
 7107, 5916, 5471, 5835
 7108, 5917, 5207, 5875
 7109, 6055, 5917, 5192
 7110, 6112, 5918, 6054
 7111, 5918, 4808, 5878
 7112, 6559, 5919, 5224
 7113, 5919, 5208, 5868
 7114, 6049, 5961, 4621
 7115, 5920, 4621, 5838
 7116, 5982, 5921, 5286
 7117, 5982, 5973, 5921
 7118, 5979, 5922, 5972
 7119, 5922, 4745, 5648
 7120, 5981, 5923, 5974
 7121, 5923, 5386, 5643
 7122, 5983, 5924, 5975
 7123, 5924, 4626, 5626
 7124, 5980, 5925, 4650
 7125, 5980, 5971, 5925
 7126, 6022, 5274, 5959
 7127, 6029, 5926, 5315
 7128, 6050, 5960, 4622
 7129, 5927, 4622, 5839
 7130, 6023, 4875, 5958
 7131, 6031, 5928, 4916
 7132, 6025, 5238, 5775
 7133, 6105, 6026, 5929
 7134, 6028, 4839, 5755
 7135, 6106, 6027, 5930
 7136, 6265, 5176, 6199
 7137, 5931, 5177, 5862
 7138, 6263, 4777, 6196
 7139, 5932, 4778, 5861
 7140, 5988, 5933, 5296
 7141, 6592, 5988, 5295
 7142, 6553, 5987, 5934
 7143, 5934, 5499, 5771
 7144, 5986, 5935, 4897
 7145, 6590, 5986, 4896
 7146, 5997, 5936, 5499
 7147, 6012, 5936, 5997
 7148, 6013, 5996, 5937
 7149, 5937, 5296, 5777
 7150, 6552, 5985, 5938
 7151, 5938, 5444, 5784
 7152, 5995, 5939, 5444
 7153, 6017, 5939, 5995
 7154, 6018, 5994, 5940
 7155, 5940, 4897, 5748
 7156, 5941, 5770, 5884
 7157, 5941, 5398, 5888
 7158, 6093, 5406, 6008
 7159, 5942, 5407, 5888
 7160, 6016, 5480, 5837
 7161, 6095, 6015, 5943
 7162, 5944, 5787, 5880
 7163, 5944, 5453, 5889
 7164, 6084, 5461, 5993
 7165, 5945, 5462, 5889
 7166, 6021, 5425, 5836
 7167, 6097, 6020, 5946
 7168, 6082, 5947, 6005
 7169, 5947, 4991, 5845
 7170, 6037, 5948, 4917
 7171, 5948, 4876, 5840
 7172, 6036, 5133, 5904
 7173, 6030, 5949, 5103
 7174, 6035, 5950, 5316
 7175, 5950, 5275, 5841
 7176, 6034, 4734, 5905
 7177, 6024, 5951, 4704
 7178, 5952, 5434, 5885
 7179, 5952, 5776, 5782
 7180, 5953, 5489, 5877
 7181, 5953, 5758, 5783
 7182, 5954, 4762, 5736
 7183, 6137, 6056, 5954
 7184, 6213, 5955, 5272
 7185, 5955, 5255, 5863
 7186, 6212, 5956, 4873
 7187, 5956, 4856, 5864
 7188, 5957, 5161, 5721
 7189, 6138, 6059, 5957
 7190, 6038, 5958, 4874
 7191, 6038, 6023, 5958
 7192, 6040, 5959, 5273
 7193, 6040, 6022, 5959
 7194, 6050, 6039, 5960
 7195, 5960, 5132, 5781
 7196, 6049, 6041, 5961
 7197, 5961, 4733, 5766
 7198, 6046, 5962, 5434
 7199, 6552, 5443, 5985
 7200, 6100, 5963, 4896
 7201, 5963, 5453, 5880
 7202, 6043, 5964, 5489
 7203, 6553, 5498, 5987
 7204, 6098, 5965, 5295
 7205, 5965, 5398, 5884
 7206, 7368, 5178, 6343
 7207, 5966, 5162, 5822
 7208, 6593, 5359, 6426
 7209, 5967, 5328, 5809
 7210, 5968, 4809, 5507
 7211, 5968, 5510, 5910
 7212, 5969, 4898, 5513
 7213, 5969, 5518, 5913
 7214, 5970, 5022, 5511
 7215, 5970, 5522, 5911
 7216, 5971, 4651, 5687
 7217, 5971, 5717, 5925
 7218, 5972, 5637, 5647
 7219, 5979, 5972, 4715
 7220, 5973, 5327, 5552
 7221, 5973, 5619, 5921
 7222, 5974, 5633, 5642
 7223, 5981, 5974, 5387
 7224, 5975, 5553, 5625
 7225, 5983, 5975, 4625
 7226, 6063, 5976, 4824
 7227, 6290, 6063, 4825
 7228, 6062, 5977, 4929
 7229, 6264, 6062, 4930
 7230, 6189, 6164, 4810
 7231, 6130, 4795, 5990
 7232, 6074, 4744, 5999
 7233, 5979, 4745, 5922
 7234, 6000, 5980, 4650
 7235, 6415, 5980, 6073
 7236, 6173, 6072, 5981
 7237, 6072, 6001, 5981
 7238, 6069, 6002, 5285
 7239, 5982, 5327, 5973
 7240, 6174, 6068, 5983
 7241, 6068, 6003, 5983
 7242, 6064, 5984, 5053
 7243, 6232, 6005, 5984
 7244, 6303, 6131, 5985
 7245, 6303, 5985, 5443
 7246, 5994, 5986, 4897
 7247, 6302, 5986, 6132
 7248, 6301, 6133, 5987
 7249, 6301, 5987, 5498
 7250, 6300, 5988, 6134
 7251, 6592, 5295, 5965
 7252, 6071, 5989, 4857
 7253, 6070, 5989, 4858
 7254, 6083, 5990, 4795
 7255, 5990, 4794, 5978
 7256, 5991, 4991, 5947
 7257, 6075, 5991, 4992
 7258, 6128, 5992, 5415
 7259, 6021, 5424, 5946
 7260, 6129, 5993, 5461
 7261, 5993, 5470, 5916
 7262, 5994, 4897, 5940
 7263, 6132, 5994, 4878
 7264, 6017, 5995, 5135
 7265, 5995, 5444, 5985
 7266, 5996, 5296, 5937
 7267, 6134, 5996, 5277
 7268, 6012, 5997, 4736
 7269, 5997, 5499, 5987
 7270, 6077, 4840, 5901
 7271, 7168, 4841, 6509
 7272, 6085, 5999, 4744
 7273, 5999, 4745, 5979
 7274, 6000, 4650, 5898
 7275, 6437, 6073, 4681
 7276, 6088, 6001, 5355
 7277, 6001, 5386, 5981
 7278, 6002, 5286, 5896
 7279, 6438, 6069, 5285
 7280, 6090, 6003, 4657
 7281, 6003, 4626, 5983
 7282, 6079, 4960, 5903
 7283, 8710, 4961, 6506
 7284, 6082, 6005, 5023
 7285, 6005, 5022, 5984
 7286, 6739, 6006, 6593
 7287, 6800, 5329, 6737
 7288, 7203, 6983, 5163
 7289, 6808, 5163, 6719
 7290, 6110, 6008, 5406
 7291, 6008, 5415, 5915
 7292, 6109, 6009, 5470
 7293, 6016, 5479, 5943
 7294, 6010, 5084, 5902
 7295, 6247, 6086, 5085
 7296, 6127, 6104, 6044
 7297, 6104, 6011, 5115
 7298, 6092, 6012, 4736
 7299, 6012, 5883, 5936
 7300, 6013, 5874, 5276
 7301, 6013, 5277, 5996
 7302, 6014, 5888, 5398
 7303, 6094, 6014, 5397
 7304, 6043, 6015, 5488
 7305, 6015, 5890, 5943
 7306, 6016, 5943, 5480
 7307, 6016, 5837, 6009
 7308, 6091, 6017, 5135
 7309, 6017, 5879, 5939
 7310, 6018, 5881, 4877
 7311, 6018, 4878, 5994
 7312, 6019, 5889, 5453
 7313, 6096, 6019, 5452
 7314, 6046, 6020, 5433
 7315, 6020, 5891, 5946
 7316, 6021, 5946, 5425
 7317, 6021, 5836, 5992
 7318, 6022, 5315, 5926
 7319, 6022, 5926, 5274
 7320, 6023, 4916, 5928
 7321, 6023, 5928, 4875
 7322, 6120, 6024, 4704
 7323, 6024, 4703, 5920
 7324, 6081, 6025, 5775
 7325, 6025, 5237, 5929
 7326, 6139, 6026, 5253
 7327, 6026, 5859, 5929
 7328, 6140, 6027, 4854
 7329, 6027, 5860, 5930
 7330, 6080, 6028, 5755
 7331, 6028, 4838, 5930
 7332, 6117, 6029, 5315
 7333, 6029, 5316, 5950
 7334, 6909, 6030, 5103
 7335, 6030, 5102, 5927
 7336, 6116, 6031, 4916
 7337, 6031, 4917, 5948
 7338, 6032, 5862, 5160
 7339, 6108, 6032, 5159
 7340, 6033, 5861, 4761
 7341, 6107, 6033, 4760
 7342, 6067, 5905, 6052
 7343, 6034, 4704, 5951
 7344, 6035, 5275, 5950
 7345, 6907, 6158, 5316
 7346, 6066, 5904, 6053
 7347, 6036, 5103, 5949
 7348, 6171, 6060, 6157
 7349, 6037, 4876, 5948
 7350, 6126, 6038, 4874
 7351, 6236, 6038, 4915
 7352, 6124, 6039, 5101
 7353, 6039, 5132, 5960
 7354, 6125, 6040, 5273
 7355, 6238, 6040, 5314
 7356, 6122, 6041, 4702
 7357, 6041, 4733, 5961
 7358, 6042, 5397, 6014
 7359, 6042, 5398, 5965
 7360, 6043, 5489, 6015
 7361, 6191, 6043, 5488
 7362, 6044, 5145, 5906
 7363, 6127, 6044, 5146
 7364, 6045, 5452, 6019
 7365, 6045, 5453, 5963
 7366, 6046, 5434, 6020
 7367, 6193, 6046, 5433
 7368, 6123, 6047, 5298
 7369, 6123, 6115, 6047
 7370, 6121, 6048, 6119
 7371, 6048, 5240, 5908
 7372, 6049, 5920, 4703
 7373, 6239, 6049, 4703
 7374, 6050, 5927, 5102
 7375, 6237, 6050, 5102
 7376, 6102, 5908, 5240
 7377, 6051, 5224, 5919
 7378, 6092, 4735, 6012
 7379, 6067, 6052, 4705
 7380, 6091, 5134, 6017
 7381, 6066, 6053, 5104
 7382, 6111, 6054, 4793
 7383, 6112, 6054, 4792
 7384, 6113, 6055, 5192
 7385, 6114, 6055, 5191
 7386, 6186, 6142, 4761
 7387, 6056, 5865, 5954
 7388, 6057, 5863, 5254
 7389, 6135, 6057, 5271
 7390, 6058, 5864, 4855
 7391, 6136, 6058, 4872
 7392, 6175, 6141, 5160
 7393, 6059, 5866, 5957
 7394, 6060, 4877, 5873
 7395, 6060, 5873, 4876
 7396, 6061, 5276, 5876
 7397, 6061, 5876, 5275
 7398, 6162, 4929, 5893
 7399, 6264, 6163, 6062
 7400, 6165, 4824, 5892
 7401, 6290, 6164, 6063
 7402, 6166, 5053, 5894
 7403, 6232, 6064, 5054
 7404, 6065, 5508, 5509
 7405, 6065, 4809, 5978
 7406, 6231, 6066, 5104
 7407, 6066, 6036, 5904
 7408, 6233, 6067, 4705
 7409, 6067, 6034, 5905
 7410, 6174, 5983, 4625
 7411, 6405, 6068, 4656
 7412, 6414, 6069, 5326
 7413, 6069, 5982, 6002
 7414, 6230, 6070, 4858
 7415, 6077, 4841, 5998
 7416, 6384, 6161, 4857
 7417, 6291, 6167, 6071
 7418, 6173, 5981, 5387
 7419, 6406, 6072, 5356
 7420, 6415, 6073, 4682
 7421, 6073, 5980, 6000
 7422, 6172, 5979, 4715
 7423, 6407, 6074, 4714
 7424, 6229, 6075, 4992
 7425, 6079, 4961, 6004
 7426, 6165, 4825, 6063
 7427, 6076, 5892, 5998
 7428, 6077, 5998, 4840
 7429, 6077, 5901, 6070
 7430, 6162, 4930, 6062
 7431, 6078, 5893, 6004
 7432, 6079, 6004, 4960
 7433, 6079, 5903, 6075
 7434, 6080, 5755, 5763
 7435, 6202, 6080, 4823
 7436, 6081, 5775, 5731
 7437, 6201, 6081, 5222
 7438, 6168, 6082, 5023
 7439, 8715, 6082, 6168
 7440, 6176, 6083, 4795
 7441, 6169, 6083, 4780
 7442, 6084, 5835, 5462
 7443, 6084, 5945, 5461
 7444, 6152, 6085, 4744
 7445, 6181, 6085, 5491
 7446, 6166, 5054, 6064
 7447, 6086, 5894, 6010
 7448, 6151, 6087, 4680
 7449, 6087, 4681, 6000
 7450, 6150, 6088, 5355
 7451, 6183, 6088, 5354
 7452, 6149, 6089, 5288
 7453, 6089, 5285, 6002
 7454, 6148, 6090, 4657
 7455, 6185, 6090, 4658
 7456, 6227, 6091, 5135
 7457, 6227, 6219, 6091
 7458, 6225, 6092, 4736
 7459, 6225, 6221, 6092
 7460, 6093, 5834, 5407
 7461, 6093, 5942, 5406
 7462, 6603, 6179, 5397
 7463, 6094, 5406, 5942
 7464, 6235, 6209, 5479
 7465, 6095, 5488, 6015
 7466, 6605, 6178, 5452
 7467, 6096, 5461, 5945
 7468, 6234, 6210, 5424
 7469, 6097, 5433, 6020
 7470, 6153, 6098, 5295
 7471, 6190, 6098, 5294
 7472, 6154, 6099, 5497
 7473, 6099, 5498, 5964
 7474, 6155, 6100, 4896
 7475, 6192, 6100, 4895
 7476, 6156, 6101, 5442
 7477, 6101, 5443, 5962
 7478, 6348, 6217, 6102
 7479, 6102, 5224, 6051
 7480, 6147, 6103, 5116
 7481, 8730, 6103, 6147
 7482, 6104, 5115, 5824
 7483, 6104, 5145, 6044
 7484, 6323, 6188, 5237
 7485, 6105, 5253, 6026
 7486, 6324, 6187, 4838
 7487, 6106, 4854, 6027
 7488, 6308, 6159, 6107
 7489, 6107, 4777, 5932
 7490, 6309, 6160, 6108
 7491, 6108, 5176, 5931
 7492, 6337, 5478, 6235
 7493, 6109, 5479, 6009
 7494, 6248, 6110, 5406
 7495, 6310, 6248, 5405
 7496, 6311, 4793, 5878
 7497, 6312, 4777, 6159
 7498, 6228, 6112, 4792
 7499, 6195, 6112, 4807
 7500, 6313, 5192, 5875
 7501, 6316, 5176, 6160
 7502, 6226, 6114, 5191
 7503, 6198, 6114, 5206
 7504, 6115, 5256, 5829
 7505, 6115, 5297, 6047
 7506, 6215, 6116, 4916
 7507, 6985, 6116, 6936
 7508, 6214, 6117, 5315
 7509, 7276, 7147, 5316
 7510, 6909, 6373, 6743
 7511, 6211, 6118, 5071
 7512, 6119, 5239, 5812
 7513, 6218, 6119, 5256
 7514, 6521, 4704, 6370
 7515, 6325, 6207, 6120
 7516, 7282, 7233, 6222
 7517, 6121, 5240, 6048
 7518, 6122, 4733, 6041
 7519, 6457, 6122, 4702
 7520, 6346, 6220, 5298
 7521, 6218, 6123, 5257
 7522, 6124, 5132, 6039
 7523, 6456, 6124, 5101
 7524, 6125, 5314, 6040
 7525, 6359, 5273, 6213
 7526, 6448, 6144, 4914
 7527, 6126, 4915, 6038
 7528, 6216, 6127, 5146
 7529, 6127, 5116, 6011
 7530, 6128, 5424, 5992
 7531, 6194, 6128, 5415
 7532, 6315, 6246, 5460
 7533, 6129, 5470, 5993
 7534, 6189, 5978, 4809
 7535, 6637, 6489, 4795
 7536, 6208, 6131, 5136
 7537, 6131, 5135, 5995
 7538, 6206, 6132, 4878
 7539, 6302, 6132, 4879
 7540, 6205, 6133, 4737
 7541, 6133, 4736, 5997
 7542, 6204, 6134, 5277
 7543, 6300, 6134, 5278
 7544, 6327, 6143, 6135
 7545, 6135, 5272, 5955
 7546, 6331, 6136, 4872
 7547, 6331, 6144, 6136
 7548, 6330, 6137, 6146
 7549, 6137, 4731, 6056
 7550, 6145, 6138, 5131
 7551, 6332, 6138, 6145
 7552, 6244, 6180, 6139
 7553, 6139, 5254, 6026
 7554, 6245, 6140, 4854
 7555, 6245, 6177, 6140
 7556, 6175, 5160, 6059
 7557, 6339, 6243, 6175
 7558, 6340, 6240, 6186
 7559, 6142, 4760, 6033
 7560, 6767, 6143, 5313
 7561, 6143, 5272, 6135
 7562, 6448, 6279, 6144
 7563, 6144, 4873, 6136
 7564, 6364, 6145, 5131
 7565, 6566, 6332, 6145
 7566, 6362, 6146, 4732
 7567, 6558, 6330, 6146
 7568, 8730, 6147, 5085
 7569, 6304, 6147, 5116
 7570, 6296, 6148, 4657
 7571, 6677, 6148, 6495
 7572, 6496, 5284, 6297
 7573, 6149, 5285, 6089
 7574, 6295, 6150, 5355
 7575, 6675, 6150, 6494
 7576, 6673, 6493, 6151
 7577, 6493, 6294, 6151
 7578, 6492, 6293, 4743
 7579, 6152, 5491, 6085
 7580, 6894, 6728, 5294
 7581, 6153, 5294, 6098
 7582, 6711, 6504, 6154
 7583, 6504, 6301, 6154
 7584, 6302, 6155, 4896
 7585, 6900, 6733, 4895
 7586, 6710, 6505, 6156
 7587, 6505, 6303, 6156
 7588, 6157, 6037, 4917
 7589, 6171, 6157, 4918
 7590, 6158, 6035, 5316
 7591, 6170, 6158, 5317
 7592, 6445, 6159, 6308
 7593, 6312, 6159, 4776
 7594, 6444, 6160, 6309
 7595, 6316, 6160, 5175
 7596, 6161, 5514, 5517
 7597, 6161, 5517, 4898
 7598, 6162, 6062, 4929
 7599, 6162, 5893, 6078
 7600, 6291, 6163, 4899
 7601, 6163, 5977, 6062
 7602, 6189, 4810, 6130
 7603, 6164, 5976, 6063
 7604, 6165, 6063, 4824
 7605, 6165, 5892, 6076
 7606, 6166, 6064, 5053
 7607, 6166, 5894, 6086
 7608, 6320, 6167, 4899
 7609, 6167, 4858, 5989
 7610, 8715, 6168, 4992
 7611, 6292, 6168, 5023
 7612, 6374, 6169, 4780
 7613, 8724, 6169, 4779
 7614, 6355, 6170, 5317
 7615, 6170, 5276, 6061
 7616, 6353, 6171, 4918
 7617, 6171, 4877, 6060
 7618, 6277, 6172, 4715
 7619, 6172, 4714, 6074
 7620, 6402, 6276, 5387
 7621, 6173, 5356, 6072
 7622, 6398, 6278, 4625
 7623, 6174, 4656, 6068
 7624, 6175, 6059, 5130
 7625, 6339, 6175, 5130
 7626, 6176, 4780, 6083
 7627, 6305, 6176, 4795
 7628, 6177, 4872, 6058
 7629, 6177, 6058, 4855
 7630, 6605, 6570, 6178
 7631, 6178, 5461, 6096
 7632, 6603, 6583, 6179
 7633, 6179, 5406, 6094
 7634, 6180, 5271, 6057
 7635, 6180, 6057, 5254
 7636, 6393, 6181, 5491
 7637, 8732, 6181, 5490
 7638, 6394, 6182, 4649
 7639, 6182, 4680, 6087
 7640, 6395, 6183, 5354
 7641, 8733, 6183, 5385
 7642, 6396, 6184, 5287
 7643, 6184, 5288, 6089
 7644, 6397, 6185, 4658
 7645, 8734, 6185, 4627
 7646, 6186, 6056, 4731
 7647, 6340, 6186, 4731
 7648, 6443, 6187, 4837
 7649, 6371, 6106, 6187
 7650, 6442, 6188, 5236
 7651, 6372, 6105, 6188
 7652, 6189, 6130, 5978
 7653, 6189, 4809, 6164
 7654, 6322, 6190, 5294
 7655, 6190, 5397, 6042
 7656, 6392, 6191, 5488
 7657, 6191, 5497, 6099
 7658, 6321, 6192, 4895
 7659, 6192, 5452, 6045
 7660, 6391, 6193, 5433
 7661, 6193, 5442, 6101
 7662, 6335, 6194, 5414
 7663, 6194, 5415, 6110
 7664, 6334, 6299, 4808
 7665, 6195, 4808, 5918
 7666, 6311, 6263, 6196
 7667, 6196, 4777, 6111
 7668, 6267, 6197, 4776
 7669, 6197, 4792, 6054
 7670, 6333, 6298, 5207
 7671, 6198, 5207, 5917
 7672, 6313, 6265, 6199
 7673, 6199, 5176, 6113
 7674, 6268, 6200, 5175
 7675, 6200, 5191, 6055
 7676, 6201, 5237, 6081
 7677, 6318, 6201, 5222
 7678, 6580, 6324, 6202
 7679, 6202, 4838, 6080
 7680, 6337, 6203, 5469
 7681, 6203, 5470, 6129
 7682, 6665, 6204, 6571
 7683, 6204, 5278, 6134
 7684, 6468, 6205, 4737
 7685, 6360, 6225, 6205
 7686, 6319, 6206, 4878
 7687, 6660, 6206, 6567
 7688, 6751, 6582, 4671
 7689, 6207, 4703, 6120
 7690, 6469, 6208, 5136
 7691, 6357, 6227, 6208
 7692, 6440, 6209, 5478
 7693, 6369, 6095, 6209
 7694, 6441, 6210, 5423
 7695, 6368, 6097, 6210
 7696, 6211, 5102, 6118
 7697, 7354, 6211, 5071
 7698, 6279, 6212, 4873
 7699, 6212, 4874, 5765
 7700, 6359, 6213, 5272
 7701, 6213, 5858, 5255
 7702, 6937, 6214, 5346
 7703, 6238, 6214, 5315
 7704, 6358, 6215, 6236
 7705, 6936, 6215, 4947
 7706, 6336, 6216, 5146
 7707, 7102, 6216, 6938
 7708, 6574, 6217, 6348
 7709, 6347, 6217, 5225
 7710, 6218, 5256, 6115
 7711, 6218, 5257, 6121
 7712, 6535, 6219, 5105
 7713, 6219, 6053, 6091
 7714, 7490, 5299, 7075
 7715, 6220, 5257, 6123
 7716, 6528, 6221, 4706
 7717, 6221, 6052, 6092
 7718, 7233, 7090, 5241
 7719, 7233, 6348, 6222
 7720, 6223, 4733, 6122
 7721, 6223, 4732, 5954
 7722, 6224, 5132, 6124
 7723, 6224, 5131, 5957
 7724, 6225, 4736, 6205
 7725, 6225, 4706, 6221
 7726, 6226, 5206, 6114
 7727, 6329, 6226, 5191
 7728, 6227, 5135, 6208
 7729, 6227, 5105, 6219
 7730, 6568, 4806, 6416
 7731, 6228, 4807, 6112
 7732, 6229, 4961, 6075
 7733, 6344, 6229, 4992
 7734, 6230, 4841, 6070
 7735, 6342, 6230, 4858
 7736, 6365, 6231, 5104
 7737, 6547, 6231, 6365
 7738, 6764, 6458, 6232
 7739, 6232, 5023, 6005
 7740, 6363, 6233, 4705
 7741, 6543, 6233, 6363
 7742, 6234, 5423, 6210
 7743, 6234, 5424, 6128
 7744, 6235, 5478, 6209
 7745, 6235, 5479, 6109
 7746, 6358, 6236, 4915
 7747, 6236, 4916, 6023
 7748, 6237, 5102, 6211
 7749, 6237, 5101, 6039
 7750, 6356, 6238, 5314
 7751, 6238, 5315, 6022
 7752, 6239, 4703, 6207
 7753, 6239, 4702, 6041
 7754, 6545, 6349, 6240
 7755, 6240, 4760, 6142
 7756, 6572, 5208, 5919
 7757, 6241, 5193, 5821
 7758, 7379, 5193, 7246
 7759, 6242, 5178, 5811
 7760, 6546, 6351, 6243
 7761, 6243, 5159, 6141
 7762, 6372, 6350, 5253
 7763, 6338, 6244, 5270
 7764, 6371, 6352, 4854
 7765, 6341, 6245, 4871
 7766, 6246, 5461, 6178
 7767, 6912, 6315, 5460
 7768, 6247, 5054, 6086
 7769, 6354, 6247, 5085
 7770, 6248, 5406, 6179
 7771, 7850, 6310, 5405
 7772, 6269, 6249, 5363
 7773, 6249, 5362, 5534
 7774, 6280, 6250, 4746
 7775, 6250, 4716, 5797
 7776, 6272, 6251, 4647
 7777, 6251, 4648, 5684
 7778, 6271, 6252, 5481
 7779, 6252, 5472, 5660
 7780, 6270, 6253, 5384
 7781, 6253, 5383, 5655
 7782, 6275, 6254, 5365
 7783, 6254, 5364, 5536
 7784, 6274, 6255, 5399
 7785, 6255, 5390, 5558
 7786, 6273, 6256, 4628
 7787, 6256, 4629, 5576
 7788, 6284, 6257, 4636
 7789, 6257, 4637, 5690
 7790, 6283, 6258, 5373
 7791, 6258, 5372, 5544
 7792, 6281, 6259, 5052
 7793, 6259, 5083, 5568
 7794, 6286, 6260, 5376
 7795, 6260, 5375, 5547
 7796, 6282, 6261, 4959
 7797, 6261, 4990, 5571
 7798, 6285, 6262, 4639
 7799, 6262, 4640, 5676
 7800, 6263, 5733, 4778
 7801, 6263, 5932, 4777
 7802, 6470, 6326, 4930
 7803, 6264, 4899, 6163
 7804, 6265, 5759, 5177
 7805, 6265, 5931, 5176
 7806, 6287, 6266, 5362
 7807, 6266, 5361, 5533
 7808, 6700, 6267, 4776
 7809, 6267, 4792, 6197
 7810, 6268, 5191, 6200
 7811, 6701, 6525, 6268
 7812, 6889, 6269, 5363
 7813, 6685, 6481, 6269
 7814, 6834, 5384, 6704
 7815, 6651, 6471, 6270
 7816, 6836, 6702, 5482
 7817, 6271, 5472, 6252
 7818, 6473, 6272, 4647
 7819, 6837, 6703, 4648
 7820, 6839, 4628, 6706
 7821, 6654, 6474, 6273
 7822, 6655, 6274, 6475
 7823, 6274, 5390, 6255
 7824, 6477, 6275, 5365
 7825, 6872, 6275, 6661
 7826, 6478, 6276, 6402
 7827, 8554, 6173, 6276
 7828, 6403, 6277, 4715
 7829, 6609, 6277, 6476
 7830, 6480, 6278, 6398
 7831, 8553, 6174, 6278
 7832, 6279, 6126, 6212
 7833, 6279, 4873, 6144
 7834, 6280, 4716, 6250
 7835, 6862, 6280, 4746
 7836, 6841, 6656, 6281
 7837, 6281, 5083, 6259
 7838, 6657, 6282, 6483
 7839, 6282, 4990, 6261
 7840, 6859, 6283, 5373
 7841, 6659, 6485, 6283
 7842, 6486, 6284, 4636
 7843, 6875, 6284, 6670
 7844, 6676, 6487, 6285
 7845, 6285, 4640, 6262
 7846, 6490, 6286, 5376
 7847, 7682, 7594, 5375
 7848, 6481, 6287, 5362
 7849, 6699, 6497, 6287
 7850, 6288, 5716, 5685
 7851, 6288, 4649, 6182
 7852, 6289, 5618, 5556
 7853, 6289, 5287, 6184
 7854, 6621, 6446, 4825
 7855, 8561, 6164, 6290
 7856, 6291, 4898, 6163
 7857, 6291, 4899, 6167
 7858, 6458, 5023, 6232
 7859, 7670, 5024, 7228
 7860, 6407, 6293, 4744
 7861, 6776, 6492, 4743
 7862, 6712, 4713, 6584
 7863, 6294, 4681, 6151
 7864, 6406, 6295, 5355
 7865, 6774, 6494, 5324
 7866, 6405, 6296, 4657
 7867, 6772, 6495, 4688
 7868, 6715, 5325, 6585
 7869, 6297, 5285, 6149
 7870, 6779, 6298, 6333
 7871, 6298, 5222, 5886
 7872, 7529, 6317, 6299
 7873, 6299, 4823, 5882
 7874, 6579, 6300, 5278
 7875, 6300, 5295, 5988
 7876, 6301, 5498, 6154
 7877, 6301, 4737, 6133
 7878, 6575, 6302, 4879
 7879, 6302, 4896, 5986
 7880, 6303, 5443, 6156
 7881, 6303, 5136, 6131
 7882, 6510, 6304, 5117
 7883, 6304, 5116, 6216
 7884, 6637, 4795, 6130
 7885, 6548, 4781, 6375
 7886, 6353, 6319, 6306
 7887, 6306, 4878, 6018
 7888, 6355, 6314, 6307
 7889, 6307, 5277, 6013
 7890, 6349, 6308, 4760
 7891, 6631, 6445, 6308
 7892, 6351, 6309, 5159
 7893, 6633, 6444, 6309
 7894, 6310, 5414, 6194
 7895, 6310, 6194, 6110
 7896, 6311, 5729, 5733
 7897, 6311, 5733, 6263
 7898, 6312, 4776, 6197
 7899, 6312, 6111, 4777
 7900, 6313, 5730, 5759
 7901, 6313, 5759, 6265
 7902, 6571, 6314, 5318
 7903, 6314, 5277, 6307
 7904, 6315, 5469, 6203
 7905, 6315, 6203, 6129
 7906, 6316, 5175, 6200
 7907, 6316, 6113, 5176
 7908, 6317, 4823, 6299
 7909, 7854, 6580, 4822
 7910, 6318, 5222, 6298
 7911, 8708, 5221, 7087
 7912, 6567, 6319, 4919
 7913, 6319, 4878, 6306
 7914, 6320, 4858, 6167
 7915, 7671, 4899, 6820
 7916, 6732, 6321, 6596
 7917, 6321, 5452, 6192
 7918, 6727, 6322, 6594
 7919, 6322, 5397, 6190
 7920, 6323, 5236, 6188
 7921, 6323, 5237, 6201
 7922, 6324, 4837, 6187
 7923, 6324, 4838, 6202
 7924, 6521, 6439, 6325
 7925, 6325, 4672, 6207
 7926, 6628, 6326, 6470
 7927, 6326, 4899, 6264
 7928, 6551, 6327, 5271
 7929, 6557, 6327, 5312
 7930, 6328, 4792, 6267
 7931, 6568, 6416, 6228
 7932, 6329, 5191, 6268
 7933, 6569, 6417, 6226
 7934, 6550, 6330, 4700
 7935, 6330, 4731, 6137
 7936, 6555, 6331, 4872
 7937, 6560, 6331, 4913
 7938, 6554, 6332, 5099
 7939, 6332, 5130, 6138
 7940, 6520, 6333, 5206
 7941, 6779, 6333, 6520
 7942, 6519, 6334, 4807
 7943, 7529, 6334, 6519
 7944, 6335, 6128, 6194
 7945, 6591, 6335, 5414
 7946, 6720, 5147, 6336
 7947, 6938, 6336, 5147
 7948, 6337, 6109, 6203
 7949, 6589, 6337, 5469
 7950, 6532, 6338, 5270
 7951, 6338, 5271, 6180
 7952, 6554, 6339, 5130
 7953, 6339, 5129, 6243
 7954, 6550, 6340, 4731
 7955, 6340, 4730, 6240
 7956, 6530, 6341, 4871
 7957, 6341, 4872, 6177
 7958, 6342, 4858, 6320
 7959, 6508, 4842, 6366
 7960, 7379, 5179, 6343
 7961, 7368, 5179, 7203
 7962, 8739, 4992, 6168
 7963, 6507, 4962, 6367
 7964, 7094, 6345, 5209
 7965, 7246, 6345, 7094
 7966, 6573, 6346, 6556
 7967, 6346, 5299, 6220
 7968, 6588, 6347, 5225
 7969, 6741, 6347, 6588
 7970, 6348, 5240, 6222
 7971, 6574, 6348, 5241
 7972, 6615, 6349, 6545
 7973, 6631, 6349, 6615
 7974, 6635, 6611, 6350
 7975, 6611, 6544, 6350
 7976, 6617, 6351, 6546
 7977, 6633, 6351, 6617
 7978, 6636, 6613, 6352
 7979, 6613, 6542, 6352
 7980, 6529, 6353, 4918
 7981, 6353, 4919, 6319
 7982, 6518, 5085, 6147
 7983, 7301, 7176, 5055
 7984, 6526, 6355, 5317
 7985, 6355, 5318, 6314
 7986, 6587, 6356, 5314
 7987, 6771, 6356, 5345
 7988, 6467, 6357, 5106
 7989, 6357, 5105, 6227
 7990, 6586, 6358, 4915
 7991, 6770, 6358, 4946
 7992, 6767, 5272, 6143
 7993, 6359, 6125, 5273
 7994, 6466, 6360, 4707
 7995, 6360, 4706, 6225
 7996, 6764, 6763, 6458
 7997, 6361, 5054, 6247
 7998, 6362, 4732, 6223
 7999, 6457, 6362, 6122
 8000, 6528, 4705, 6221
 8001, 6780, 6684, 4673
 8002, 6364, 5131, 6224
 8003, 6456, 6364, 6124
 8004, 6535, 5104, 6219
 8005, 6777, 6547, 5073
 8006, 6630, 6366, 4842
 8007, 6366, 4841, 6230
 8008, 6629, 6506, 6367
 8009, 6367, 4961, 6229
 8010, 6627, 6391, 5433
 8011, 6368, 5433, 6097
 8012, 6626, 6392, 5488
 8013, 6369, 5488, 6095
 8014, 6521, 6370, 4673
 8015, 6370, 4704, 6233
 8016, 6371, 4854, 6106
 8017, 6443, 6371, 6187
 8018, 6372, 5253, 6105
 8019, 6442, 6372, 6188
 8020, 6743, 6373, 5072
 8021, 6373, 5103, 6231
 8022, 6374, 4779, 6169
 8023, 6692, 6374, 4780
 8024, 6549, 6375, 4781
 8025, 6375, 4780, 6176
 8026, 6484, 6455, 4716
 8027, 6376, 4685, 5798
 8028, 6377, 5084, 5524
 8029, 6377, 5831, 5870
 8030, 6450, 6378, 4646
 8031, 6378, 4647, 5683
 8032, 6472, 6451, 5472
 8033, 6379, 5463, 5659
 8034, 6449, 6380, 5383
 8035, 6380, 5382, 5654
 8036, 6454, 6381, 5366
 8037, 6381, 5365, 5537
 8038, 6642, 6453, 5408
 8039, 6382, 5399, 5561
 8040, 6452, 6383, 4629
 8041, 6383, 4630, 5560
 8042, 6384, 4857, 5842
 8043, 6384, 5504, 5514
 8044, 6463, 6385, 4635
 8045, 6385, 4636, 5691
 8046, 6462, 6386, 5372
 8047, 6386, 5371, 5543
 8048, 6482, 6460, 5083
 8049, 6387, 5114, 5567
 8050, 6465, 6388, 5377
 8051, 6388, 5376, 5548
 8052, 6646, 6461, 4928
 8053, 6389, 4959, 5572
 8054, 6464, 6390, 4640
 8055, 6390, 4641, 5677
 8056, 6735, 6627, 5432
 8057, 6391, 5442, 6193
 8058, 6731, 6626, 5487
 8059, 6392, 5497, 6191
 8060, 6878, 6393, 5491
 8061, 6702, 6561, 6393
 8062, 6703, 6394, 6562
 8063, 6394, 4680, 6182
 8064, 6395, 5385, 6183
 8065, 6880, 6395, 5354
 8066, 6564, 6396, 5287
 8067, 6881, 6396, 6705
 8068, 6882, 6706, 6397
 8069, 6397, 4627, 6185
 8070, 6480, 6398, 4624
 8071, 6398, 4625, 5528
 8072, 6488, 6399, 5361
 8073, 6399, 5360, 5532
 8074, 6999, 5327, 6414
 8075, 6400, 5358, 5527
 8076, 6447, 6401, 4651
 8077, 6401, 4652, 5688
 8078, 6478, 6402, 5388
 8079, 6402, 5387, 5634
 8080, 6476, 6403, 4684
 8081, 6403, 4715, 5638
 8082, 6644, 6491, 4685
 8083, 6404, 4654, 5799
 8084, 6405, 4657, 6068
 8085, 6578, 6405, 4656
 8086, 6406, 5355, 6072
 8087, 6577, 6406, 5356
 8088, 6407, 4744, 6074
 8089, 6576, 6407, 4714
 8090, 6498, 6408, 4645
 8091, 6408, 4646, 5682
 8092, 6640, 6501, 5463
 8093, 6409, 5454, 5658
 8094, 6502, 6410, 5382
 8095, 6410, 5381, 5653
 8096, 6503, 6411, 5367
 8097, 6411, 5366, 5538
 8098, 6668, 6499, 5417
 8099, 6412, 5408, 5562
 8100, 6500, 6413, 4630
 8101, 6413, 4631, 5559
 8102, 6999, 5326, 6831
 8103, 6414, 5327, 5982
 8104, 6632, 6447, 6415
 8105, 6415, 4651, 5980
 8106, 7218, 6519, 6416
 8107, 6416, 4807, 6228
 8108, 7086, 5220, 6952
 8109, 6417, 5206, 6226
 8110, 6512, 6418, 4634
 8111, 6418, 4635, 5692
 8112, 6514, 6419, 5371
 8113, 6419, 5370, 5542
 8114, 6645, 6511, 5114
 8115, 6420, 5144, 5566
 8116, 6516, 6421, 5378
 8117, 6421, 5377, 5549
 8118, 6681, 6513, 4887
 8119, 6422, 4928, 5573
 8120, 6623, 6515, 4641
 8121, 6423, 4642, 5678
 8122, 6674, 6600, 6524
 8123, 6424, 4623, 5800
 8124, 6524, 6425, 4623
 8125, 6425, 4624, 5529
 8126, 6593, 6426, 5360
 8127, 6426, 5359, 5531
 8128, 6650, 6601, 6523
 8129, 6427, 5389, 5526
 8130, 6750, 6428, 4652
 8131, 6428, 4653, 5689
 8132, 6523, 6429, 5389
 8133, 6429, 5388, 5635
 8134, 6522, 4653, 6428
 8135, 6430, 4684, 5639
 8136, 6536, 6431, 4644
 8137, 6431, 4645, 5681
 8138, 6667, 6539, 5454
 8139, 6432, 5445, 5657
 8140, 6541, 6433, 5381
 8141, 6433, 5380, 5652
 8142, 6540, 6434, 5368
 8143, 6434, 5367, 5539
 8144, 6694, 6537, 5426
 8145, 6435, 5417, 5563
 8146, 6538, 6436, 4631
 8147, 6436, 4632, 5695
 8148, 6437, 4682, 6073
 8149, 6437, 4681, 6294
 8150, 6438, 5326, 6069
 8151, 6438, 5285, 6297
 8152, 6684, 6515, 6439
 8153, 6623, 4641, 6464
 8154, 6891, 6440, 5478
 8155, 6626, 6440, 5487
 8156, 6890, 6441, 5423
 8157, 6627, 6441, 5432
 8158, 8047, 5236, 7982
 8159, 6635, 6442, 5252
 8160, 7965, 4837, 7855
 8161, 6636, 6443, 4853
 8162, 6905, 6444, 5158
 8163, 6444, 5175, 6160
 8164, 6908, 6445, 4759
 8165, 6445, 4776, 6159
 8166, 6819, 6446, 6621
 8167, 8561, 6446, 7008
 8168, 6783, 6634, 6447
 8169, 6447, 4651, 6415
 8170, 6599, 6586, 4915
 8171, 6448, 4915, 6126
 8172, 6471, 6449, 5383
 8173, 6825, 6638, 6449
 8174, 6639, 6450, 4646
 8175, 6826, 6473, 6450
 8176, 6827, 6451, 6472
 8177, 6451, 5463, 6379
 8178, 6474, 6452, 4629
 8179, 6828, 6641, 6452
 8180, 6829, 6453, 6642
 8181, 6453, 5399, 6382
 8182, 6643, 6454, 5366
 8183, 6835, 6477, 6454
 8184, 6848, 6455, 6484
 8185, 6455, 4685, 6376
 8186, 6726, 6456, 5101
 8187, 6456, 5100, 6364
 8188, 6729, 6457, 4702
 8189, 6457, 4701, 6362
 8190, 6458, 6292, 5023
 8191, 6764, 6361, 6763
 8192, 8739, 4993, 6344
 8193, 6459, 6168, 6292
 8194, 6830, 6460, 6482
 8195, 6460, 5114, 6387
 8196, 6832, 6461, 6646
 8197, 6461, 4959, 6389
 8198, 6485, 6462, 5372
 8199, 6833, 6647, 6462
 8200, 6648, 6463, 4635
 8201, 6838, 6486, 6463
 8202, 6487, 6464, 4640
 8203, 6718, 6623, 6464
 8204, 6663, 6465, 5377
 8205, 6817, 6490, 6465
 8206, 7048, 6861, 6466
 8207, 6861, 6658, 6466
 8208, 7056, 6885, 6467
 8209, 6885, 6679, 6467
 8210, 6744, 4737, 6724
 8211, 6468, 4707, 6360
 8212, 6740, 5136, 6722
 8213, 6469, 5106, 6357
 8214, 6784, 6506, 6629
 8215, 6628, 6470, 4931
 8216, 6471, 5383, 6270
 8217, 6825, 6471, 5352
 8218, 6472, 5472, 6271
 8219, 6827, 6472, 5473
 8220, 6653, 6473, 4678
 8221, 6473, 4647, 6450
 8222, 6474, 4629, 6273
 8223, 6828, 6474, 4660
 8224, 6655, 6475, 5400
 8225, 6475, 5399, 6453
 8226, 6602, 4684, 6430
 8227, 6609, 6476, 6602
 8228, 6661, 6477, 5334
 8229, 6477, 5365, 6454
 8230, 6601, 5388, 6523
 8231, 6608, 6478, 6601
 8232, 6999, 6831, 6479
 8233, 6479, 5358, 6400
 8234, 6600, 4624, 6524
 8235, 6607, 6480, 6600
 8236, 6481, 5362, 6269
 8237, 6699, 6481, 5331
 8238, 6482, 5083, 6281
 8239, 6830, 6482, 5082
 8240, 6657, 6483, 4958
 8241, 6483, 4959, 6461
 8242, 6484, 4716, 6280
 8243, 6848, 6484, 4717
 8244, 6485, 5372, 6283
 8245, 6833, 6485, 5341
 8246, 6670, 6486, 4667
 8247, 6486, 4636, 6463
 8248, 6487, 4640, 6285
 8249, 6718, 4671, 6582
 8250, 6497, 6488, 5361
 8251, 6739, 6593, 5360
 8252, 6794, 6489, 6637
 8253, 6794, 6760, 6489
 8254, 6686, 6490, 5345
 8255, 6490, 5376, 6465
 8256, 6863, 6491, 6644
 8257, 6491, 4654, 6404
 8258, 6672, 6492, 5492
 8259, 6492, 6152, 6293
 8260, 6673, 6151, 4680
 8261, 6775, 6493, 4711
 8262, 6675, 6494, 5323
 8263, 6494, 6150, 6295
 8264, 6677, 6495, 4689
 8265, 6495, 6148, 6296
 8266, 6678, 6149, 5288
 8267, 6773, 6496, 5289
 8268, 6497, 5361, 6287
 8269, 6792, 6497, 5330
 8270, 6664, 6498, 4645
 8271, 7115, 6498, 6842
 8272, 6846, 6499, 6668
 8273, 6499, 5408, 6412
 8274, 6641, 6500, 4630
 8275, 6845, 6666, 6500
 8276, 7425, 6501, 6640
 8277, 6501, 5454, 6409
 8278, 6638, 6502, 5382
 8279, 6847, 6669, 6502
 8280, 6671, 6503, 5367
 8281, 7113, 6503, 6852
 8282, 6724, 6504, 4738
 8283, 6504, 4737, 6301
 8284, 6722, 6505, 5137
 8285, 6505, 5136, 6303
 8286, 6506, 4961, 6367
 8287, 6629, 6367, 4962
 8288, 6507, 6344, 4993
 8289, 7296, 7170, 4962
 8290, 6508, 6342, 4859
 8291, 7300, 7172, 4842
 8292, 6630, 6509, 6366
 8293, 7168, 6509, 6621
 8294, 6690, 6510, 5117
 8295, 6518, 5086, 6354
 8296, 7421, 6511, 6645
 8297, 6511, 5144, 6420
 8298, 6683, 6512, 4634
 8299, 7116, 6512, 6857
 8300, 6853, 6513, 6681
 8301, 6513, 4928, 6422
 8302, 6647, 6514, 5371
 8303, 6856, 6682, 6514
 8304, 6515, 4642, 6423
 8305, 6515, 6423, 4641
 8306, 6689, 6516, 5378
 8307, 6887, 6663, 6516
 8308, 6517, 6354, 5086
 8309, 6517, 5055, 6361
 8310, 6518, 6354, 5085
 8311, 6518, 6147, 6510
 8312, 7529, 6519, 4822
 8313, 6519, 4807, 6416
 8314, 6779, 6520, 5221
 8315, 6520, 5206, 6417
 8316, 6521, 4673, 6439
 8317, 6521, 6325, 6120
 8318, 8518, 6634, 6783
 8319, 6602, 6430, 6522
 8320, 6523, 5389, 6427
 8321, 6650, 6523, 5358
 8322, 6524, 4623, 6424
 8323, 6674, 6524, 4654
 8324, 6716, 6525, 5174
 8325, 6525, 5190, 6329
 8326, 6918, 6526, 6752
 8327, 6526, 5318, 6355
 8328, 6717, 6527, 4775
 8329, 6527, 4791, 6328
 8330, 6658, 6528, 4706
 8331, 6793, 6528, 6658
 8332, 6753, 6529, 4918
 8333, 6919, 6529, 6753
 8334, 6612, 6530, 4871
 8335, 6622, 6555, 6530
 8336, 7356, 6531, 5098
 8337, 6531, 5129, 6339
 8338, 8524, 5270, 6610
 8339, 6620, 6551, 6532
 8340, 7345, 6533, 4699
 8341, 6533, 4730, 6340
 8342, 6719, 5146, 6044
 8343, 6914, 6720, 6534
 8344, 6679, 6535, 5105
 8345, 6798, 6535, 6679
 8346, 6693, 6536, 4644
 8347, 7120, 6536, 6864
 8348, 6866, 6537, 6694
 8349, 6537, 5417, 6435
 8350, 6666, 6538, 4631
 8351, 6869, 6695, 6538
 8352, 7288, 6539, 6667
 8353, 6539, 5445, 6432
 8354, 6697, 6540, 5368
 8355, 7118, 6540, 6874
 8356, 6669, 6541, 5381
 8357, 6876, 6698, 6541
 8358, 6612, 6542, 4870
 8359, 6542, 4871, 6245
 8360, 6543, 6363, 4674
 8361, 6543, 4673, 6370
 8362, 6610, 6544, 5269
 8363, 6544, 5270, 6244
 8364, 6614, 6545, 4730
 8365, 6615, 6545, 4729
 8366, 6616, 6546, 5129
 8367, 6617, 6546, 5128
 8368, 6547, 6365, 5073
 8369, 6547, 5072, 6373
 8370, 6548, 6305, 4796
 8371, 6778, 6548, 4796
 8372, 6991, 6549, 4781
 8373, 6849, 6692, 6549
 8374, 6550, 4731, 6330
 8375, 6625, 6550, 4700
 8376, 6551, 5312, 6327
 8377, 6551, 5271, 6338
 8378, 6552, 5938, 5885
 8379, 6552, 5962, 5443
 8380, 6553, 5934, 5877
 8381, 6553, 5964, 5498
 8382, 6554, 5130, 6332
 8383, 6624, 6554, 5099
 8384, 6555, 4913, 6331
 8385, 6555, 4872, 6341
 8386, 6737, 5298, 6047
 8387, 6939, 5329, 6792
 8388, 6897, 6619, 6557
 8389, 6557, 5313, 6143
 8390, 6729, 6687, 4701
 8391, 6558, 4700, 6330
 8392, 6572, 6559, 5209
 8393, 6559, 5224, 6347
 8394, 6903, 6618, 6560
 8395, 6560, 4914, 6144
 8396, 6561, 5481, 5668
 8397, 6561, 5490, 6393
 8398, 6562, 4649, 5715
 8399, 6703, 6562, 4648
 8400, 6563, 5384, 5662
 8401, 6563, 5385, 6395
 8402, 6564, 5287, 5617
 8403, 6705, 6564, 5390
 8404, 6565, 4628, 5628
 8405, 6565, 4627, 6397
 8406, 6726, 6649, 5100
 8407, 6566, 5099, 6332
 8408, 6688, 6567, 4919
 8409, 6660, 6567, 4920
 8410, 6568, 6328, 4791
 8411, 6749, 6568, 4791
 8412, 6569, 6329, 5190
 8413, 6748, 6569, 5190
 8414, 6606, 6570, 6605
 8415, 6570, 5460, 6246
 8416, 6691, 6571, 5318
 8417, 6665, 6571, 5319
 8418, 6572, 5919, 6559
 8419, 6572, 5209, 6345
 8420, 7215, 5330, 6699
 8421, 6573, 5299, 6346
 8422, 6925, 6738, 5241
 8423, 6574, 5225, 6217
 8424, 6723, 6575, 4879
 8425, 6900, 4880, 6733
 8426, 6707, 6576, 4714
 8427, 7059, 4713, 6951
 8428, 8554, 6708, 5356
 8429, 7061, 5325, 6950
 8430, 8553, 7167, 4656
 8431, 7062, 6754, 4687
 8432, 6725, 6579, 5278
 8433, 6894, 5279, 6728
 8434, 6580, 6317, 4822
 8435, 6580, 4837, 6324
 8436, 6581, 6318, 5221
 8437, 6581, 5236, 6323
 8438, 6718, 4672, 6623
 8439, 7037, 4671, 6801
 8440, 6604, 6583, 6603
 8441, 6583, 5405, 6248
 8442, 6883, 6576, 6707
 8443, 6584, 4682, 6437
 8444, 6886, 6714, 6585
 8445, 6585, 5326, 6438
 8446, 8717, 6761, 6599
 8447, 6586, 4946, 6358
 8448, 6587, 5345, 6356
 8449, 6742, 6587, 5314
 8450, 6926, 6745, 5225
 8451, 6741, 6588, 5210
 8452, 6916, 6765, 6589
 8453, 6589, 5478, 6337
 8454, 6590, 5963, 5880
 8455, 6590, 5935, 5986
 8456, 6915, 6762, 6591
 8457, 6591, 5423, 6335
 8458, 6592, 5965, 5884
 8459, 6592, 5933, 5988
 8460, 6739, 5360, 6488
 8461, 6593, 6006, 5359
 8462, 6728, 6594, 5294
 8463, 6727, 6594, 5293
 8464, 6896, 6595, 5496
 8465, 6595, 5497, 6392
 8466, 6733, 6596, 4895
 8467, 6732, 6596, 4894
 8468, 6597, 4763, 5801
 8469, 6597, 4779, 6374
 8470, 6902, 6598, 5441
 8471, 6598, 5442, 6391
 8472, 6599, 6448, 4914
 8473, 8717, 4914, 6618
 8474, 6607, 6600, 4655
 8475, 6600, 6480, 4624
 8476, 6608, 6601, 5357
 8477, 6601, 6478, 5388
 8478, 6609, 6602, 4683
 8479, 6602, 6476, 4684
 8480, 6781, 5397, 6322
 8481, 6604, 6603, 5396
 8482, 7201, 7023, 6604
 8483, 7023, 5404, 6821
 8484, 6899, 5452, 6321
 8485, 6606, 6605, 5451
 8486, 7036, 5459, 6822
 8487, 6606, 5460, 6570
 8488, 7167, 6709, 4656
 8489, 8553, 6607, 7167
 8490, 8723, 6608, 5357
 8491, 8554, 6608, 6708
 8492, 8716, 6707, 4714
 8493, 8716, 8555, 6609
 8494, 8524, 6610, 7389
 8495, 6610, 5270, 6544
 8496, 8098, 6611, 5252
 8497, 6611, 5269, 6544
 8498, 7432, 6612, 4870
 8499, 7347, 6530, 6612
 8500, 7819, 7711, 4870
 8501, 6613, 4870, 6542
 8502, 7344, 7234, 4729
 8503, 6614, 4729, 6545
 8504, 6824, 6615, 4729
 8505, 6631, 6615, 4759
 8506, 6616, 5129, 6531
 8507, 7348, 7236, 5128
 8508, 6823, 6617, 5128
 8509, 6633, 6617, 5158
 8510, 6990, 6618, 6903
 8511, 8717, 6618, 4945
 8512, 6989, 6619, 6897
 8513, 6898, 6619, 5344
 8514, 6935, 6620, 5311
 8515, 6620, 5312, 6551
 8516, 6819, 6621, 4826
 8517, 7168, 6621, 4825
 8518, 6933, 6622, 4912
 8519, 6622, 4913, 6555
 8520, 6623, 4672, 6439
 8521, 6623, 6439, 6515
 8522, 6932, 6624, 5099
 8523, 6624, 5098, 6531
 8524, 6934, 6625, 4700
 8525, 6625, 4699, 6533
 8526, 6626, 6369, 6440
 8527, 7245, 5487, 7050
 8528, 6627, 6368, 6441
 8529, 7241, 5432, 7052
 8530, 6809, 6628, 4931
 8531, 6820, 6628, 4900
 8532, 6786, 6629, 4962
 8533, 6786, 6784, 6629
 8534, 6785, 6630, 4842
 8535, 7003, 6630, 6785
 8536, 6631, 4759, 6445
 8537, 6631, 6308, 6349
 8538, 7005, 4682, 6713
 8539, 7005, 6632, 4682
 8540, 6633, 5158, 6444
 8541, 6633, 6309, 6351
 8542, 8518, 6602, 6750
 8543, 6634, 4652, 6401
 8544, 6635, 5252, 6611
 8545, 6635, 6350, 6372
 8546, 6636, 4853, 6613
 8547, 6636, 6352, 6371
 8548, 6637, 6130, 4810
 8549, 6794, 6637, 4810
 8550, 6638, 5382, 6449
 8551, 7423, 6847, 6502
 8552, 6826, 6639, 4677
 8553, 6639, 4646, 6498
 8554, 6640, 5463, 6451
 8555, 7425, 6844, 6501
 8556, 6641, 4630, 6452
 8557, 7424, 6845, 6500
 8558, 6829, 6642, 5409
 8559, 6642, 5408, 6499
 8560, 6835, 6643, 5335
 8561, 6643, 5366, 6503
 8562, 6644, 4685, 6455
 8563, 6863, 6644, 4686
 8564, 6645, 5114, 6460
 8565, 7421, 6850, 6511
 8566, 6832, 6646, 4927
 8567, 6646, 4928, 6513
 8568, 6647, 5371, 6462
 8569, 7422, 6856, 6514
 8570, 6838, 6648, 4666
 8571, 6648, 4635, 6512
 8572, 6981, 6649, 5069
 8573, 6981, 6949, 6649
 8574, 6650, 5358, 6479
 8575, 6650, 5357, 6601
 8576, 6815, 6651, 5353
 8577, 6651, 5352, 6471
 8578, 6814, 6652, 5482
 8579, 6652, 5473, 6472
 8580, 6813, 6653, 4678
 8581, 6837, 4679, 6703
 8582, 6812, 6654, 4659
 8583, 6654, 4660, 6474
 8584, 6811, 6655, 5400
 8585, 6840, 5391, 6705
 8586, 6806, 6656, 5051
 8587, 6656, 5082, 6482
 8588, 6805, 6657, 4958
 8589, 6843, 6657, 4989
 8590, 6793, 6747, 6528
 8591, 6658, 4706, 6466
 8592, 6804, 6659, 5342
 8593, 6659, 5341, 6485
 8594, 7814, 7697, 7700
 8595, 6660, 4879, 6206
 8596, 6810, 6661, 5334
 8597, 6872, 6661, 5333
 8598, 6807, 6662, 4747
 8599, 6662, 4717, 6484
 8600, 6817, 6663, 5346
 8601, 6663, 5377, 6516
 8602, 6842, 6664, 4676
 8603, 6664, 4645, 6536
 8604, 7501, 5319, 7316
 8605, 6665, 5278, 6204
 8606, 6666, 4631, 6500
 8607, 7287, 6869, 6538
 8608, 6667, 5454, 6501
 8609, 7288, 6871, 6539
 8610, 6846, 6668, 5418
 8611, 6668, 5417, 6537
 8612, 6669, 5381, 6502
 8613, 7289, 6876, 6541
 8614, 6803, 6670, 4667
 8615, 6875, 6670, 4668
 8616, 6852, 6671, 5336
 8617, 6671, 5367, 6540
 8618, 7009, 6672, 5492
 8619, 6672, 5491, 6152
 8620, 6879, 6788, 4680
 8621, 6673, 4711, 6493
 8622, 6674, 4654, 6491
 8623, 6674, 4655, 6600
 8624, 7010, 6789, 6675
 8625, 6675, 5354, 6150
 8626, 6801, 4670, 6729
 8627, 6676, 4671, 6487
 8628, 7011, 6791, 6677
 8629, 6677, 4658, 6148
 8630, 6790, 6678, 5288
 8631, 6678, 5289, 6496
 8632, 6798, 6746, 6535
 8633, 6679, 5105, 6467
 8634, 7314, 7038, 5143
 8635, 7038, 6851, 6680
 8636, 6854, 6681, 4887
 8637, 7039, 4886, 6681
 8638, 6682, 5370, 6514
 8639, 7324, 7041, 5339
 8640, 7195, 6858, 4633
 8641, 6857, 6683, 4665
 8642, 6944, 6860, 6780
 8643, 6684, 4642, 6515
 8644, 6816, 6685, 5332
 8645, 6685, 5331, 6481
 8646, 6759, 5345, 6587
 8647, 7682, 5344, 7594
 8648, 6978, 6687, 4670
 8649, 6978, 6948, 6687
 8650, 6769, 6688, 4919
 8651, 7211, 6688, 7100
 8652, 6888, 6689, 5378
 8653, 7207, 6888, 5379
 8654, 7069, 6942, 5118
 8655, 6690, 5086, 6510
 8656, 7162, 6691, 6960
 8657, 6691, 5319, 6571
 8658, 6692, 4780, 6549
 8659, 6721, 6692, 4764
 8660, 7413, 6944, 6796
 8661, 6864, 6693, 4675
 8662, 6867, 6694, 5426
 8663, 7042, 5427, 6694
 8664, 7195, 6868, 7043
 8665, 6695, 4632, 6538
 8666, 7309, 7044, 5446
 8667, 7044, 6870, 6696
 8668, 7198, 6873, 5369
 8669, 6874, 6697, 5337
 8670, 6698, 5380, 6541
 8671, 7047, 5349, 6918
 8672, 7215, 6736, 5330
 8673, 6699, 5330, 6497
 8674, 6943, 4776, 6908
 8675, 6700, 4775, 6527
 8676, 6941, 5175, 6905
 8677, 6701, 5174, 6525
 8678, 6836, 5482, 6652
 8679, 6702, 5481, 6561
 8680, 6837, 4648, 6272
 8681, 6879, 6703, 4679
 8682, 6834, 5353, 6651
 8683, 6704, 5384, 6563
 8684, 6840, 5390, 6274
 8685, 6881, 6705, 5391
 8686, 6839, 4659, 6654
 8687, 6706, 4628, 6565
 8688, 8716, 4714, 8555
 8689, 8716, 7005, 6713
 8690, 8723, 6831, 6714
 8691, 6886, 6577, 6708
 8692, 6975, 4655, 6863
 8693, 6945, 6578, 6709
 8694, 6734, 5442, 6598
 8695, 6710, 5137, 6505
 8696, 6730, 5497, 6595
 8697, 6711, 4738, 6504
 8698, 6712, 6294, 4712
 8699, 6951, 6712, 4712
 8700, 6713, 4682, 6584
 8701, 6883, 6584, 4713
 8702, 6714, 5326, 6585
 8703, 6886, 6585, 5325
 8704, 6715, 6297, 5284
 8705, 6950, 6715, 5284
 8706, 6716, 5190, 6525
 8707, 7209, 7058, 6716
 8708, 7055, 4790, 6892
 8709, 6717, 4791, 6527
 8710, 6718, 6464, 6487
 8711, 6718, 6582, 4672
 8712, 6808, 6719, 5906
 8713, 6719, 5163, 6534
 8714, 7124, 6720, 5164
 8715, 6720, 6336, 6534
 8716, 7391, 7177, 7375
 8717, 6721, 4763, 6597
 8718, 6722, 5136, 6505
 8719, 6795, 6722, 5137
 8720, 6723, 4879, 6660
 8721, 7700, 7584, 4880
 8722, 6724, 4737, 6504
 8723, 6797, 6724, 4738
 8724, 7841, 7756, 5279
 8725, 6725, 5279, 6579
 8726, 8735, 5101, 7516
 8727, 6726, 5069, 6649
 8728, 6928, 6727, 5293
 8729, 6781, 5396, 6603
 8730, 6894, 5294, 6153
 8731, 7049, 6728, 5279
 8732, 7037, 6801, 6729
 8733, 6729, 4670, 6687
 8734, 6896, 6730, 6595
 8735, 6730, 4738, 6711
 8736, 6731, 5496, 6595
 8737, 6731, 6595, 6392
 8738, 6927, 6732, 4894
 8739, 6899, 5451, 6605
 8740, 6900, 4895, 6155
 8741, 7054, 6733, 4880
 8742, 6902, 6734, 6598
 8743, 6734, 5137, 6710
 8744, 6735, 5441, 6598
 8745, 6735, 6391, 6627
 8746, 7363, 7215, 7046
 8747, 6736, 5299, 6573
 8748, 6800, 6737, 5907
 8749, 6737, 5329, 6556
 8750, 7111, 6738, 5242
 8751, 6738, 5225, 6574
 8752, 6792, 6739, 6488
 8753, 6739, 5329, 6006
 8754, 6906, 6740, 6795
 8755, 6740, 5106, 6469
 8756, 6930, 6741, 5210
 8757, 6741, 5209, 6559
 8758, 6742, 5314, 6125
 8759, 6898, 6742, 5313
 8760, 6910, 6743, 5072
 8761, 6743, 5071, 6118
 8762, 6904, 6744, 6797
 8763, 6744, 4707, 6468
 8764, 8420, 5226, 7485
 8765, 6745, 5210, 6588
 8766, 6799, 6746, 6798
 8767, 6746, 5073, 6365
 8768, 6796, 4675, 6693
 8769, 6747, 4674, 6363
 8770, 6748, 5205, 6569
 8771, 6895, 6748, 5190
 8772, 6749, 4806, 6568
 8773, 6892, 6749, 4791
 8774, 6750, 6522, 6428
 8775, 6750, 4652, 6634
 8776, 6751, 4702, 6239
 8777, 6751, 6239, 6207
 8778, 6907, 5317, 6158
 8779, 6918, 5349, 6768
 8780, 6913, 4918, 6157
 8781, 6919, 4950, 6769
 8782, 6754, 4688, 6296
 8783, 6754, 6296, 6405
 8784, 6755, 5324, 6295
 8785, 6755, 6295, 6406
 8786, 6756, 4743, 6293
 8787, 6756, 6293, 6407
 8788, 6911, 5414, 6310
 8789, 7440, 6915, 5413
 8790, 6912, 5469, 6315
 8791, 7443, 6916, 5468
 8792, 6898, 6587, 6742
 8793, 6759, 5344, 6686
 8794, 6802, 6760, 4811
 8795, 6760, 4796, 6305
 8796, 8737, 7604, 4976
 8797, 6761, 4946, 6586
 8798, 7206, 5431, 7052
 8799, 6762, 5423, 6591
 8800, 6782, 6766, 6763
 8801, 6782, 6763, 5055
 8802, 6764, 6232, 5054
 8803, 6764, 5054, 6361
 8804, 7204, 5486, 7050
 8805, 6765, 5478, 6589
 8806, 6766, 5024, 6292
 8807, 6766, 6458, 6763
 8808, 6767, 5313, 6742
 8809, 6767, 6125, 6359
 8810, 6960, 6768, 5349
 8811, 6768, 5318, 6526
 8812, 7100, 6769, 4950
 8813, 6769, 4919, 6529
 8814, 7065, 6818, 6770
 8815, 6770, 4947, 6215
 8816, 6817, 5345, 6490
 8817, 6771, 5346, 6214
 8818, 7083, 6772, 6920
 8819, 6772, 4689, 6495
 8820, 7063, 6956, 5290
 8821, 6773, 5284, 6496
 8822, 6924, 6774, 5324
 8823, 7080, 6774, 6924
 8824, 6954, 6775, 4711
 8825, 7060, 6775, 6954
 8826, 7076, 6953, 6776
 8827, 6776, 5492, 6492
 8828, 6946, 6777, 5073
 8829, 7085, 6777, 6946
 8830, 7067, 6940, 6778
 8831, 6778, 4781, 6548
 8832, 6779, 5221, 6318
 8833, 6779, 6318, 6298
 8834, 6780, 6543, 4674
 8835, 6944, 6780, 4674
 8836, 6781, 6603, 5397
 8837, 6781, 6322, 6727
 8838, 8480, 5056, 8434
 8839, 6782, 5024, 6766
 8840, 6783, 6447, 6632
 8841, 8518, 6783, 4683
 8842, 6784, 4931, 6470
 8843, 8710, 6784, 6470
 8844, 7173, 7152, 6785
 8845, 7003, 6785, 4826
 8846, 7171, 7007, 6786
 8847, 6786, 4931, 6784
 8848, 7009, 6787, 6672
 8849, 7097, 6878, 6787
 8850, 7105, 6788, 6879
 8851, 8705, 6673, 6788
 8852, 7132, 7098, 6789
 8853, 6789, 5354, 6675
 8854, 6881, 6790, 5288
 8855, 7133, 6790, 7104
 8856, 7136, 7099, 6791
 8857, 6791, 4658, 6677
 8858, 6939, 5330, 6573
 8859, 6792, 5329, 6739
 8860, 6793, 6658, 4675
 8861, 6796, 6793, 4675
 8862, 8561, 7008, 4810
 8863, 6794, 4811, 6760
 8864, 7369, 5137, 7221
 8865, 6906, 6795, 5107
 8866, 6865, 6796, 6693
 8867, 6796, 4674, 6747
 8868, 7373, 4738, 7225
 8869, 6904, 6797, 4708
 8870, 6798, 6679, 5074
 8871, 6799, 6798, 5074
 8872, 8261, 5074, 8198
 8873, 8210, 6946, 6799
 8874, 6800, 5907, 5328
 8875, 6800, 6006, 5329
 8876, 6801, 4671, 6676
 8877, 6801, 6676, 4670
 8878, 8380, 4812, 8333
 8879, 6802, 4796, 6760
 8880, 7016, 6803, 4667
 8881, 7226, 6803, 7016
 8882, 7072, 6804, 5342
 8883, 7197, 6804, 7072
 8884, 7184, 6805, 7013
 8885, 6805, 4989, 6657
 8886, 7331, 6806, 5051
 8887, 6806, 5082, 6656
 8888, 6807, 4717, 6662
 8889, 7333, 7329, 4748
 8890, 6808, 5906, 5162
 8891, 6808, 6007, 5163
 8892, 7175, 7007, 4932
 8893, 6809, 4900, 6628
 8894, 7022, 6810, 5334
 8895, 7453, 7377, 5333
 8896, 7192, 7138, 6811
 8897, 6811, 5391, 6655
 8898, 7139, 6812, 4659
 8899, 7191, 6812, 7139
 8900, 7019, 6813, 4678
 8901, 7189, 6813, 7019
 8902, 7186, 7141, 5483
 8903, 6814, 5473, 6652
 8904, 7137, 6815, 5353
 8905, 7185, 6815, 7137
 8906, 8537, 7341, 5301
 8907, 7216, 7046, 6816
 8908, 6817, 6465, 6663
 8909, 6817, 5346, 6771
 8910, 7129, 6818, 7065
 8911, 7064, 6988, 4947
 8912, 6977, 6819, 4826
 8913, 7008, 4811, 6794
 8914, 7671, 4900, 7551
 8915, 6820, 4899, 6326
 8916, 7850, 7674, 6911
 8917, 6821, 5405, 6604
 8918, 7388, 7107, 6912
 8919, 6822, 5460, 6606
 8920, 6823, 5158, 6617
 8921, 7123, 6823, 5128
 8922, 7122, 6824, 4729
 8923, 7149, 6994, 4759
 8924, 7144, 5352, 7017
 8925, 6825, 5351, 6638
 8926, 6987, 6826, 4677
 8927, 6826, 4678, 6473
 8928, 7143, 5473, 7018
 8929, 6827, 5464, 6640
 8930, 7142, 4660, 7020
 8931, 6828, 4661, 6641
 8932, 6986, 6829, 5409
 8933, 6829, 5400, 6475
 8934, 7131, 5082, 7012
 8935, 6830, 5113, 6645
 8936, 6831, 5326, 6714
 8937, 6831, 5357, 6650
 8938, 6980, 6832, 4927
 8939, 6832, 4958, 6483
 8940, 7130, 5341, 7015
 8941, 6833, 5340, 6647
 8942, 6834, 6651, 6270
 8943, 6834, 6270, 5384
 8944, 6984, 6835, 5335
 8945, 6835, 5334, 6477
 8946, 6836, 6652, 6271
 8947, 6836, 6271, 5481
 8948, 6837, 6272, 6653
 8949, 6837, 6653, 4679
 8950, 6979, 6838, 4666
 8951, 6838, 4667, 6486
 8952, 6839, 6654, 6273
 8953, 6839, 6273, 4628
 8954, 6840, 6274, 6655
 8955, 6840, 6655, 5391
 8956, 7761, 7621, 5052
 8957, 6841, 5051, 6656
 8958, 6974, 6842, 4676
 8959, 7115, 6842, 6974
 8960, 7095, 6843, 4989
 8961, 6843, 4990, 6282
 8962, 7425, 6973, 6844
 8963, 6844, 5455, 6667
 8964, 7424, 6972, 6845
 8965, 6845, 4662, 6666
 8966, 6971, 6846, 5418
 8967, 7114, 6846, 6971
 8968, 7423, 6970, 6847
 8969, 6847, 5350, 6669
 8970, 7188, 6976, 4686
 8971, 6848, 4686, 6644
 8972, 6996, 6849, 4765
 8973, 6849, 4764, 6692
 8974, 7421, 6968, 6850
 8975, 6850, 5143, 6680
 8976, 7027, 5435, 5565
 8977, 6851, 5144, 6680
 8978, 6969, 6852, 5336
 8979, 7113, 6852, 6969
 8980, 6967, 6853, 4886
 8981, 7117, 6853, 6967
 8982, 7030, 4887, 5574
 8983, 7196, 7039, 6854
 8984, 7026, 5369, 5541
 8985, 6855, 5370, 6682
 8986, 7422, 6966, 6856
 8987, 6856, 5339, 6682
 8988, 6965, 6857, 4665
 8989, 7116, 6857, 6965
 8990, 7034, 4634, 5693
 8991, 7195, 7040, 6858
 8992, 7932, 7376, 5342
 8993, 6859, 5342, 6659
 8994, 7032, 4643, 5679
 8995, 6860, 4642, 6684
 8996, 7048, 6466, 4707
 8997, 7120, 6864, 6861
 8998, 7375, 7177, 4747
 8999, 6862, 4747, 6662
 9000, 6975, 6863, 4686
 9001, 6863, 4655, 6674
 9002, 6864, 6536, 6693
 9003, 6864, 4675, 6861
 9004, 7033, 4644, 5680
 9005, 7413, 4643, 6944
 9006, 6964, 6866, 5427
 9007, 7119, 6866, 6964
 9008, 7025, 5426, 5564
 9009, 7194, 7042, 6867
 9010, 7035, 4633, 5694
 9011, 6868, 4632, 6695
 9012, 7287, 6963, 6869
 9013, 6869, 4663, 6695
 9014, 7031, 4888, 5575
 9015, 6870, 5445, 6696
 9016, 7288, 6962, 6871
 9017, 6871, 5446, 6696
 9018, 7103, 6872, 5333
 9019, 6872, 5364, 6275
 9020, 7024, 5368, 5540
 9021, 7198, 7045, 6873
 9022, 6961, 6874, 5337
 9023, 7118, 6874, 6961
 9024, 7093, 6875, 4668
 9025, 6875, 4637, 6284
 9026, 7289, 6960, 6876
 9027, 6876, 5349, 6698
 9028, 7028, 5379, 5551
 9029, 6877, 5380, 6698
 9030, 6878, 5491, 6787
 9031, 6878, 5482, 6702
 9032, 7105, 6879, 4679
 9033, 6879, 4680, 6394
 9034, 6880, 5354, 6789
 9035, 6880, 5353, 6704
 9036, 7104, 6881, 5391
 9037, 6881, 5288, 6396
 9038, 6882, 4658, 6791
 9039, 6882, 4659, 6706
 9040, 6883, 4713, 6576
 9041, 6883, 6707, 6713
 9042, 8713, 7618, 4639
 9043, 6884, 4670, 6676
 9044, 7056, 6467, 5106
 9045, 8249, 5075, 8049
 9046, 6886, 5325, 6577
 9047, 6886, 6708, 6714
 9048, 7276, 5347, 7147
 9049, 6887, 5346, 6663
 9050, 7029, 5378, 5550
 9051, 7207, 7053, 6888
 9052, 8521, 7103, 7109
 9053, 6889, 5332, 6685
 9054, 6890, 5432, 6441
 9055, 6890, 5423, 6762
 9056, 6891, 5487, 6440
 9057, 6891, 5478, 6765
 9058, 7088, 6892, 4790
 9059, 6892, 4791, 6717
 9060, 6997, 6893, 5280
 9061, 6893, 5293, 6594
 9062, 6894, 6153, 6579
 9063, 6894, 6579, 5279
 9064, 7091, 6895, 5189
 9065, 6895, 5190, 6716
 9066, 6998, 6896, 5496
 9067, 7051, 6896, 4739
 9068, 6992, 5312, 6935
 9069, 6992, 6989, 6897
 9070, 6898, 5313, 6619
 9071, 6898, 5344, 6759
 9072, 6899, 6605, 5452
 9073, 6899, 6321, 6732
 9074, 6900, 6155, 6575
 9075, 6900, 6575, 4880
 9076, 7000, 6901, 4881
 9077, 6901, 4894, 6596
 9078, 7001, 6902, 5441
 9079, 7057, 6902, 5138
 9080, 6995, 4913, 6933
 9081, 6995, 6990, 6903
 9082, 7108, 6904, 4708
 9083, 7161, 7048, 4707
 9084, 6905, 5175, 6444
 9085, 6993, 6905, 5158
 9086, 7106, 6906, 5107
 9087, 7383, 7174, 7106
 9088, 7147, 6907, 5316
 9089, 7147, 7101, 6907
 9090, 6994, 6908, 4759
 9091, 6994, 6943, 6908
 9092, 6909, 6118, 6030
 9093, 6909, 5103, 6373
 9094, 6947, 6910, 5072
 9095, 7238, 6910, 6947
 9096, 6911, 6757, 5414
 9097, 7850, 6911, 6310
 9098, 6912, 6758, 5469
 9099, 7388, 5460, 6822
 9100, 7150, 4917, 6985
 9101, 7150, 7096, 6913
 9102, 7203, 5163, 6007
 9103, 6914, 5164, 6720
 9104, 6915, 6757, 5413
 9105, 6915, 5422, 6762
 9106, 6916, 6758, 5468
 9107, 6916, 5477, 6765
 9108, 7530, 5300, 7395
 9109, 7231, 7075, 6917
 9110, 6918, 6752, 5348
 9111, 7047, 6918, 5348
 9112, 6919, 6753, 4949
 9113, 7410, 6919, 4949
 9114, 7062, 4688, 6754
 9115, 7083, 4720, 6957
 9116, 7240, 6922, 7059
 9117, 6921, 4712, 6775
 9118, 7059, 6756, 4713
 9119, 7076, 5493, 6953
 9120, 7235, 6924, 7061
 9121, 6923, 5284, 6773
 9122, 7061, 6755, 5325
 9123, 7080, 5282, 6955
 9124, 7112, 6925, 7090
 9125, 6925, 5242, 6738
 9126, 6926, 5226, 6745
 9127, 6926, 5225, 6738
 9128, 7210, 6927, 7066
 9129, 6927, 5451, 6732
 9130, 7232, 6928, 7121
 9131, 6928, 5396, 6727
 9132, 7415, 7311, 6929
 9133, 7311, 7065, 6929
 9134, 7771, 7737, 6930
 9135, 7737, 7094, 6930
 9136, 6931, 4796, 6802
 9137, 7558, 7067, 4797
 9138, 7537, 5099, 6949
 9139, 7483, 7079, 6932
 9140, 7073, 6933, 4912
 9141, 7242, 6933, 7073
 9142, 7182, 4700, 6948
 9143, 7227, 7074, 6934
 9144, 7072, 6935, 5311
 9145, 7243, 6935, 7072
 9146, 6988, 6936, 4947
 9147, 6988, 6985, 6936
 9148, 6937, 6117, 6214
 9149, 6937, 5346, 6887
 9150, 6982, 6938, 5147
 9151, 7102, 6304, 6216
 9152, 6939, 6573, 6556
 9153, 6939, 6556, 5329
 9154, 7205, 6940, 4782
 9155, 6940, 4781, 6778
 9156, 7071, 6941, 6993
 9157, 6941, 5174, 6701
 9158, 6982, 6942, 5117
 9159, 7411, 7069, 5118
 9160, 7070, 6943, 6994
 9161, 6943, 4775, 6700
 9162, 6944, 4674, 6796
 9163, 6944, 4643, 6860
 9164, 6976, 6945, 6975
 9165, 6945, 4687, 6578
 9166, 6946, 5073, 6799
 9167, 7601, 7085, 5042
 9168, 7238, 7125, 6910
 9169, 6947, 5072, 6777
 9170, 7182, 6948, 6978
 9171, 6948, 4700, 6558
 9172, 7537, 6949, 6981
 9173, 6949, 5099, 6566
 9174, 6950, 5325, 6715
 9175, 6950, 5284, 6923
 9176, 6951, 4713, 6712
 9177, 6951, 4712, 6921
 9178, 7087, 6952, 5220
 9179, 6952, 5221, 6520
 9180, 7212, 6953, 5493
 9181, 6953, 5492, 6776
 9182, 8705, 7078, 4711
 9183, 7562, 7560, 4742
 9184, 7213, 7081, 6955
 9185, 6955, 5323, 6774
 9186, 7084, 6956, 5289
 9187, 7566, 7565, 5283
 9188, 7214, 7082, 6957
 9189, 6957, 4689, 6772
 9190, 7217, 7089, 6958
 9191, 6958, 4806, 6749
 9192, 7219, 7092, 6959
 9193, 6959, 5205, 6748
 9194, 7162, 6960, 5350
 9195, 6960, 6691, 6768
 9196, 7156, 6961, 5337
 9197, 7313, 7166, 6961
 9198, 7310, 6962, 7165
 9199, 6962, 5446, 6871
 9200, 7163, 6963, 4662
 9201, 7307, 7154, 6963
 9202, 7305, 6964, 7153
 9203, 7119, 6964, 5418
 9204, 7158, 6965, 4665
 9205, 7320, 7254, 6965
 9206, 7291, 6966, 5340
 9207, 7325, 7160, 6966
 9208, 7317, 6967, 7159
 9209, 7117, 6967, 4927
 9210, 7315, 6968, 7290
 9211, 6968, 5143, 6850
 9212, 7166, 6969, 5336
 9213, 7327, 7255, 6969
 9214, 7292, 6970, 5351
 9215, 7316, 7162, 6970
 9216, 7322, 6971, 7164
 9217, 7114, 6971, 5409
 9218, 7321, 7163, 6972
 9219, 6972, 4662, 6845
 9220, 7323, 6973, 7293
 9221, 6973, 5455, 6844
 9222, 7115, 6974, 4677
 9223, 7048, 6974, 4676
 9224, 6976, 6975, 4686
 9225, 7167, 6975, 6709
 9226, 7188, 4686, 6848
 9227, 7188, 7169, 6976
 9228, 7295, 7152, 4827
 9229, 6977, 4811, 6819
 9230, 7618, 6978, 4670
 9231, 7182, 6978, 4669
 9232, 7254, 6979, 4666
 9233, 7353, 7016, 6979
 9234, 7351, 6980, 7251
 9235, 6980, 4958, 6832
 9236, 7958, 6981, 5069
 9237, 7537, 6981, 5068
 9238, 7102, 6982, 5117
 9239, 7178, 6982, 5147
 9240, 8731, 5179, 7645
 9241, 8731, 7645, 5180
 9242, 7255, 6984, 5335
 9243, 7355, 7022, 6984
 9244, 7150, 4948, 7096
 9245, 6985, 4917, 6116
 9246, 7350, 6986, 7253
 9247, 6986, 5400, 6829
 9248, 7220, 4677, 7108
 9249, 7512, 6987, 7220
 9250, 7064, 4947, 6818
 9251, 7593, 6988, 7128
 9252, 7199, 6989, 5343
 9253, 6989, 5344, 6619
 9254, 7190, 6990, 4944
 9255, 6990, 4945, 6618
 9256, 8726, 4781, 7068
 9257, 6991, 4765, 6849
 9258, 6992, 5343, 6989
 9259, 6992, 6897, 5312
 9260, 7148, 5158, 6823
 9261, 7071, 6993, 5157
 9262, 7149, 4759, 6824
 9263, 7070, 6994, 4758
 9264, 6995, 4944, 6990
 9265, 6995, 6903, 4913
 9266, 7329, 7177, 6996
 9267, 6996, 4764, 6849
 9268, 7359, 7258, 6997
 9269, 6997, 5293, 6893
 9270, 7330, 6998, 7179
 9271, 6998, 4739, 6896
 9272, 6999, 6479, 5327
 9273, 6999, 6414, 5326
 9274, 7336, 7000, 4881
 9275, 7000, 4894, 6901
 9276, 7334, 7001, 7181
 9277, 7001, 5138, 6902
 9278, 7296, 4962, 6507
 9279, 8171, 7171, 4963
 9280, 7003, 4826, 6621
 9281, 7003, 6621, 6509
 9282, 7300, 4842, 6508
 9283, 8557, 7173, 4843
 9284, 8716, 6713, 6707
 9285, 7005, 4683, 6783
 9286, 7249, 7127, 5087
 9287, 8480, 8434, 5025
 9288, 7007, 4931, 6786
 9289, 7962, 7868, 4901
 9290, 7008, 6794, 4810
 9291, 7008, 6446, 6819
 9292, 8722, 5492, 7077
 9293, 8722, 7009, 5492
 9294, 8721, 5323, 7081
 9295, 8721, 7010, 5323
 9296, 8720, 4689, 7082
 9297, 8720, 7011, 4689
 9298, 7384, 7012, 5081
 9299, 7012, 5082, 6806
 9300, 7013, 4958, 6980
 9301, 7184, 7013, 4957
 9302, 7169, 7014, 4718
 9303, 7014, 4717, 6807
 9304, 7381, 7015, 5310
 9305, 7015, 5341, 6804
 9306, 7016, 4667, 6979
 9307, 7226, 7016, 4698
 9308, 7387, 7017, 5321
 9309, 7017, 5352, 6815
 9310, 7386, 7018, 5474
 9311, 7018, 5473, 6814
 9312, 7019, 4678, 6987
 9313, 7189, 4710, 7140
 9314, 7385, 7020, 4691
 9315, 7020, 4660, 6812
 9316, 7021, 5400, 6986
 9317, 7192, 5392, 7138
 9318, 7022, 5334, 6984
 9319, 7401, 7200, 5303
 9320, 7201, 6604, 5396
 9321, 7785, 7651, 5404
 9322, 7024, 5540, 5588
 9323, 7024, 5588, 5369
 9324, 7025, 5564, 5611
 9325, 7025, 5611, 5435
 9326, 7026, 5541, 5587
 9327, 7026, 5587, 5370
 9328, 7027, 5565, 5610
 9329, 7027, 5610, 5144
 9330, 7028, 5551, 5667
 9331, 7028, 5667, 5380
 9332, 7029, 5550, 5577
 9333, 7029, 5577, 5379
 9334, 7030, 5574, 5600
 9335, 7030, 5600, 4888
 9336, 7031, 5575, 5673
 9337, 7031, 5673, 5445
 9338, 7032, 5679, 5708
 9339, 7032, 5708, 4642
 9340, 7033, 5680, 5709
 9341, 7033, 5709, 4643
 9342, 7034, 5693, 5698
 9343, 7034, 5698, 4633
 9344, 7035, 5694, 5697
 9345, 7035, 5697, 4632
 9346, 7202, 6606, 5451
 9347, 7793, 7668, 5459
 9348, 7037, 4702, 6751
 9349, 7037, 6751, 4671
 9350, 7038, 6680, 5143
 9351, 7286, 5436, 7194
 9352, 7318, 7039, 4889
 9353, 7039, 6681, 6854
 9354, 7319, 7040, 4664
 9355, 7040, 6683, 6858
 9356, 7041, 6682, 5339
 9357, 7285, 5338, 7198
 9358, 7306, 7042, 5436
 9359, 7042, 6694, 6867
 9360, 7043, 6695, 4663
 9361, 7195, 7043, 4664
 9362, 7044, 6696, 5446
 9363, 7196, 7044, 4889
 9364, 7312, 7045, 5338
 9365, 7045, 6697, 6873
 9366, 7363, 7046, 5300
 9367, 7046, 5331, 6816
 9368, 7047, 6698, 5349
 9369, 7207, 7047, 5348
 9370, 7161, 4707, 6904
 9371, 7048, 4676, 6861
 9372, 7756, 7600, 5279
 9373, 7049, 5280, 6893
 9374, 7332, 7179, 7245
 9375, 7050, 5487, 6891
 9376, 7225, 7051, 4739
 9377, 7051, 4738, 6730
 9378, 7326, 7181, 7241
 9379, 7052, 5432, 6890
 9380, 7101, 7053, 5348
 9381, 7053, 6689, 6888
 9382, 7223, 7054, 4880
 9383, 7054, 4881, 6901
 9384, 7208, 6717, 4775
 9385, 7486, 7055, 4774
 9386, 7174, 5106, 6906
 9387, 7056, 5075, 6885
 9388, 7221, 7057, 5138
 9389, 7057, 5137, 6734
 9390, 7209, 6716, 5174
 9391, 7487, 7058, 5173
 9392, 7059, 6922, 4743
 9393, 7059, 4743, 6756
 9394, 7060, 4742, 6921
 9395, 7060, 6921, 6775
 9396, 7061, 6924, 5324
 9397, 7061, 5324, 6755
 9398, 7169, 7062, 4687
 9399, 7277, 7062, 7169
 9400, 7063, 5283, 6923
 9401, 7063, 6923, 6773
 9402, 7064, 6818, 4978
 9403, 8004, 7128, 4978
 9404, 7065, 4946, 6929
 9405, 7311, 7129, 7065
 9406, 7210, 7066, 4893
 9407, 7066, 4894, 7000
 9408, 7067, 6931, 4797
 9409, 7067, 4782, 6940
 9410, 7205, 7068, 6940
 9411, 8726, 7068, 7264
 9412, 7127, 7069, 5087
 9413, 7069, 6690, 6942
 9414, 7479, 7252, 4757
 9415, 7070, 4775, 6943
 9416, 7071, 5174, 6941
 9417, 7250, 7071, 5157
 9418, 7243, 7072, 5342
 9419, 8524, 7389, 5311
 9420, 7469, 7222, 4911
 9421, 7242, 7073, 4943
 9422, 7074, 4699, 6934
 9423, 7074, 4668, 6803
 9424, 7490, 7075, 5258
 9425, 7075, 5299, 6917
 9426, 7076, 6922, 4742
 9427, 7560, 7076, 4742
 9428, 7212, 7077, 6953
 9429, 8722, 7134, 7009
 9430, 7372, 7266, 7078
 9431, 7259, 6954, 7078
 9432, 7079, 5098, 6932
 9433, 7816, 7357, 5067
 9434, 7080, 6924, 5283
 9435, 7565, 7080, 5283
 9436, 7267, 7081, 7213
 9437, 7081, 5323, 6955
 9438, 7268, 7082, 7214
 9439, 7082, 4689, 6957
 9440, 7083, 6920, 4719
 9441, 7563, 7083, 4719
 9442, 8704, 7084, 5289
 9443, 7269, 7257, 7084
 9444, 7085, 6946, 5042
 9445, 7085, 5041, 6947
 9446, 7086, 6417, 5205
 9447, 7092, 7086, 5205
 9448, 7890, 5220, 7821
 9449, 8708, 7087, 7890
 9450, 7088, 6749, 6892
 9451, 7260, 7088, 4790
 9452, 7279, 7089, 7217
 9453, 7218, 7089, 4821
 9454, 7233, 5241, 6348
 9455, 7390, 7090, 5258
 9456, 7091, 6748, 6895
 9457, 7261, 7091, 5189
 9458, 7280, 7092, 7219
 9459, 7092, 5220, 7086
 9460, 7093, 4637, 6875
 9461, 7263, 4668, 7227
 9462, 7094, 5209, 6930
 9463, 7246, 7094, 5194
 9464, 7262, 7095, 4989
 9465, 7414, 7095, 7365
 9466, 7151, 7096, 4948
 9467, 7096, 4949, 6753
 9468, 7141, 7097, 7134
 9469, 7097, 5482, 6878
 9470, 7137, 7098, 7132
 9471, 7098, 5353, 6880
 9472, 7139, 7099, 7136
 9473, 7099, 4659, 6882
 9474, 7180, 7100, 4950
 9475, 7211, 7100, 4951
 9476, 7101, 5347, 7053
 9477, 7101, 5348, 6752
 9478, 7102, 5117, 6304
 9479, 7102, 6938, 6982
 9480, 7103, 5364, 6872
 9481, 7229, 7109, 7103
 9482, 7138, 7104, 5391
 9483, 7138, 7133, 7104
 9484, 7140, 7105, 4679
 9485, 7140, 7135, 7105
 9486, 7224, 7106, 5107
 9487, 7383, 7106, 5076
 9488, 7388, 7146, 7107
 9489, 7107, 5468, 6758
 9490, 7220, 7108, 4708
 9491, 7108, 4677, 6974
 9492, 7109, 5332, 6889
 9493, 7109, 6889, 5363
 9494, 7674, 7145, 7110
 9495, 7110, 5413, 6757
 9496, 7364, 7248, 5242
 9497, 7111, 5226, 6926
 9498, 7655, 5259, 7547
 9499, 7112, 5242, 6925
 9500, 7113, 5335, 6643
 9501, 7113, 6643, 6503
 9502, 7114, 5409, 6642
 9503, 7114, 6642, 6499
 9504, 7115, 4677, 6639
 9505, 7115, 6639, 6498
 9506, 7116, 4666, 6648
 9507, 7116, 6648, 6512
 9508, 7117, 4927, 6646
 9509, 7117, 6646, 6513
 9510, 7118, 5336, 6671
 9511, 7118, 6671, 6540
 9512, 7119, 5418, 6668
 9513, 7119, 6668, 6537
 9514, 7120, 4676, 6664
 9515, 7120, 6664, 6536
 9516, 7121, 5293, 6997
 9517, 7232, 7121, 5292
 9518, 7234, 7122, 4729
 9519, 7302, 7122, 4728
 9520, 7236, 7123, 5128
 9521, 7304, 7123, 5127
 9522, 7380, 7244, 5165
 9523, 7124, 5147, 6720
 9524, 7654, 7239, 5040
 9525, 7125, 5071, 6910
 9526, 7228, 7126, 5025
 9527, 7126, 5024, 6782
 9528, 7301, 7249, 7176
 9529, 7127, 5086, 6690
 9530, 7593, 7128, 4979
 9531, 7128, 6988, 7064
 9532, 7436, 7129, 4977
 9533, 7129, 4978, 6818
 9534, 7381, 7291, 7130
 9535, 7130, 5340, 6833
 9536, 7384, 7290, 7131
 9537, 7131, 5113, 6830
 9538, 7137, 7132, 5322
 9539, 7132, 6789, 7010
 9540, 7370, 7133, 5392
 9541, 8704, 7133, 7084
 9542, 7141, 7134, 5483
 9543, 7134, 6787, 7009
 9544, 7372, 7135, 4710
 9545, 8705, 7135, 7078
 9546, 7139, 7136, 4690
 9547, 7136, 6791, 7011
 9548, 7137, 5353, 7098
 9549, 7546, 5322, 7458
 9550, 7138, 5392, 7133
 9551, 7138, 5391, 6811
 9552, 7139, 4659, 7099
 9553, 7754, 4690, 7457
 9554, 7140, 4710, 7135
 9555, 7140, 4679, 6813
 9556, 7141, 5482, 7097
 9557, 7755, 5483, 7465
 9558, 7385, 7294, 7142
 9559, 7142, 4661, 6828
 9560, 7386, 7293, 7143
 9561, 7143, 5464, 6827
 9562, 7387, 7292, 7144
 9563, 7144, 5351, 6825
 9564, 7441, 5412, 7297
 9565, 7145, 5413, 7110
 9566, 7444, 5467, 7299
 9567, 7146, 5468, 7107
 9568, 7276, 5316, 6117
 9569, 7147, 5347, 7101
 9570, 7148, 6823, 7123
 9571, 7148, 5157, 6993
 9572, 7149, 6824, 7122
 9573, 7149, 4758, 6994
 9574, 7150, 6913, 4917
 9575, 7150, 6985, 4948
 9576, 7593, 7466, 7151
 9577, 7466, 7328, 7151
 9578, 7152, 4826, 6785
 9579, 8551, 8474, 4812
 9580, 7306, 7153, 5427
 9581, 7437, 7153, 7306
 9582, 7438, 7154, 4694
 9583, 7739, 7570, 4664
 9584, 7439, 7155, 5447
 9585, 7439, 7309, 7155
 9586, 7573, 7312, 5338
 9587, 7313, 7156, 5306
 9588, 7442, 7157, 5142
 9589, 7442, 7314, 7157
 9590, 7319, 7158, 4665
 9591, 7570, 7319, 4664
 9592, 7318, 7159, 4886
 9593, 7446, 7159, 7318
 9594, 7160, 5339, 6966
 9595, 7448, 7160, 5308
 9596, 7161, 6904, 7108
 9597, 7161, 6974, 7048
 9598, 7162, 5319, 6691
 9599, 7162, 5350, 6970
 9600, 7307, 7163, 4693
 9601, 7163, 4662, 6972
 9602, 7164, 5418, 6964
 9603, 7322, 7164, 5419
 9604, 7310, 7165, 5456
 9605, 7165, 5455, 6973
 9606, 7166, 5336, 6961
 9607, 7327, 7166, 5305
 9608, 7167, 6607, 4655
 9609, 7167, 4655, 6975
 9610, 7168, 4825, 6076
 9611, 7168, 6076, 4841
 9612, 7277, 7256, 7062
 9613, 7169, 4687, 6976
 9614, 7519, 7170, 7296
 9615, 7544, 7170, 7519
 9616, 7171, 7002, 4963
 9617, 7171, 4932, 7007
 9618, 7518, 7172, 7300
 9619, 7542, 7172, 7518
 9620, 7173, 7004, 4843
 9621, 7173, 4827, 7152
 9622, 7174, 7056, 5106
 9623, 7174, 6906, 7106
 9624, 7298, 7175, 4901
 9625, 7175, 6809, 7007
 9626, 7176, 7006, 5055
 9627, 7301, 5055, 6517
 9628, 7375, 4747, 6862
 9629, 7177, 4764, 6996
 9630, 7178, 5147, 7124
 9631, 7608, 7247, 5148
 9632, 7330, 7179, 5495
 9633, 7245, 7179, 5496
 9634, 7335, 7180, 4950
 9635, 7502, 7180, 7335
 9636, 7334, 7181, 5440
 9637, 7241, 7181, 5441
 9638, 7263, 7227, 7182
 9639, 7182, 6934, 4700
 9640, 7402, 7183, 5050
 9641, 7183, 5081, 7012
 9642, 7400, 7184, 4957
 9643, 7461, 4988, 7366
 9644, 7185, 5321, 7017
 9645, 7185, 7017, 6815
 9646, 7186, 5474, 7018
 9647, 7186, 7018, 6814
 9648, 7396, 7281, 4718
 9649, 7187, 4718, 7014
 9650, 7188, 6848, 4717
 9651, 7188, 4717, 7014
 9652, 7189, 7019, 4709
 9653, 7405, 7189, 4709
 9654, 7403, 7190, 4944
 9655, 7604, 7190, 7504
 9656, 7191, 4691, 7020
 9657, 7191, 7020, 6812
 9658, 7192, 7021, 5401
 9659, 7404, 7192, 5401
 9660, 7374, 7193, 4882
 9661, 7193, 4893, 7066
 9662, 7286, 5435, 6851
 9663, 7194, 5436, 7042
 9664, 7195, 4633, 6868
 9665, 7195, 4664, 7040
 9666, 7196, 4888, 6870
 9667, 7196, 4889, 7039
 9668, 7197, 5310, 7015
 9669, 7197, 7015, 6804
 9670, 7285, 5369, 6855
 9671, 7198, 5338, 7045
 9672, 7594, 7199, 7497
 9673, 7199, 5344, 6989
 9674, 7453, 5302, 7377
 9675, 7200, 6810, 7022
 9676, 8527, 5396, 6928
 9677, 7201, 5395, 7023
 9678, 7278, 5451, 6927
 9679, 7202, 5450, 7036
 9680, 7368, 7203, 6007
 9681, 7203, 5179, 6983
 9682, 7204, 6891, 6765
 9683, 8041, 5477, 7824
 9684, 7270, 7205, 4782
 9685, 7270, 7264, 7205
 9686, 7206, 6890, 6762
 9687, 8542, 5422, 7837
 9688, 7207, 5379, 6877
 9689, 7207, 5348, 7053
 9690, 7208, 4775, 7070
 9691, 7208, 4774, 7055
 9692, 7209, 5174, 7071
 9693, 7209, 5173, 7058
 9694, 7352, 7210, 4893
 9695, 7278, 5450, 7202
 9696, 7476, 7378, 4951
 9697, 7211, 4920, 6688
 9698, 7271, 7212, 5493
 9699, 7271, 7265, 7212
 9700, 7273, 7213, 5282
 9701, 7273, 7267, 7213
 9702, 7274, 7214, 4720
 9703, 7274, 7268, 7214
 9704, 7215, 6699, 5331
 9705, 7215, 5331, 7046
 9706, 7395, 7216, 5301
 9707, 7216, 5300, 7046
 9708, 7283, 7217, 4805
 9709, 7279, 7217, 4820
 9710, 7218, 4806, 7089
 9711, 7408, 7218, 4821
 9712, 7284, 7219, 5204
 9713, 7280, 7219, 5219
 9714, 7337, 7220, 4708
 9715, 7512, 7337, 4709
 9716, 7339, 7221, 5138
 9717, 7744, 7369, 7221
 9718, 7347, 7222, 4912
 9719, 7469, 7346, 7222
 9720, 7584, 7223, 4880
 9721, 7454, 7338, 7223
 9722, 7459, 7224, 7340
 9723, 7224, 5076, 7106
 9724, 7409, 7225, 4739
 9725, 7373, 7225, 7337
 9726, 7345, 4698, 7344
 9727, 7226, 4699, 7074
 9728, 7227, 4668, 7074
 9729, 7227, 6934, 7182
 9730, 7846, 7228, 5025
 9731, 7670, 7549, 4993
 9732, 7377, 7229, 5333
 9733, 7377, 7341, 7229
 9734, 7356, 5097, 7348
 9735, 7230, 5098, 7079
 9736, 7231, 6917, 5300
 9737, 7390, 7231, 5259
 9738, 7392, 7232, 5292
 9739, 8527, 5395, 7201
 9740, 7282, 6222, 5257
 9741, 7233, 5258, 7090
 9742, 7344, 4729, 6614
 9743, 7464, 4698, 7353
 9744, 7235, 6923, 5283
 9745, 7235, 5283, 6924
 9746, 7348, 5128, 6616
 9747, 7467, 7236, 5097
 9748, 7655, 7606, 7237
 9749, 7237, 5242, 7112
 9750, 7238, 6947, 5041
 9751, 7382, 7238, 5041
 9752, 7654, 7598, 7239
 9753, 7239, 5071, 7125
 9754, 7240, 6921, 4742
 9755, 7240, 4742, 6922
 9756, 7241, 5441, 6735
 9757, 7326, 7052, 5431
 9758, 7371, 7242, 4943
 9759, 7242, 4944, 6995
 9760, 7376, 7243, 5342
 9761, 7243, 5343, 6992
 9762, 7482, 7362, 5164
 9763, 7812, 7380, 5165
 9764, 7245, 5496, 6731
 9765, 7332, 7050, 5486
 9766, 7379, 7246, 5194
 9767, 7246, 5193, 6241
 9768, 7247, 5118, 6942
 9769, 7247, 6942, 6982
 9770, 7528, 7248, 7364
 9771, 7248, 5226, 7111
 9772, 7342, 7249, 5087
 9773, 8602, 7249, 7342
 9774, 7360, 5157, 7304
 9775, 7480, 7406, 7250
 9776, 7251, 4927, 6967
 9777, 7351, 7251, 4926
 9778, 7358, 4758, 7302
 9779, 7479, 7407, 7252
 9780, 7253, 5409, 6971
 9781, 7350, 7253, 5410
 9782, 7254, 4666, 6965
 9783, 7353, 7254, 4697
 9784, 7255, 5335, 6969
 9785, 7355, 7255, 5304
 9786, 7281, 7256, 7277
 9787, 7256, 4719, 6920
 9788, 7275, 7257, 7269
 9789, 7257, 5290, 6956
 9790, 7303, 5281, 7273
 9791, 7258, 5292, 7121
 9792, 7272, 7259, 7266
 9793, 7259, 4741, 6954
 9794, 7492, 7397, 7260
 9795, 7260, 4805, 7088
 9796, 7261, 5204, 7091
 9797, 7394, 7261, 5189
 9798, 7366, 7262, 4989
 9799, 7365, 7262, 5020
 9800, 7361, 7263, 4669
 9801, 7263, 7093, 4668
 9802, 7468, 7264, 4766
 9803, 8726, 7264, 4765
 9804, 7465, 7265, 5484
 9805, 8722, 7265, 5483
 9806, 7463, 4710, 7405
 9807, 7272, 7266, 4740
 9808, 7458, 7267, 5281
 9809, 8721, 7267, 5322
 9810, 7457, 7268, 4721
 9811, 8720, 7268, 4690
 9812, 7456, 5392, 7404
 9813, 7275, 7269, 5393
 9814, 7557, 7426, 4783
 9815, 7270, 4766, 7264
 9816, 7559, 7427, 5494
 9817, 7271, 5484, 7265
 9818, 7499, 4740, 7330
 9819, 7561, 7272, 7499
 9820, 7430, 7273, 5282
 9821, 7641, 7273, 7430
 9822, 7564, 7429, 4750
 9823, 7274, 4721, 7268
 9824, 7567, 5291, 7431
 9825, 7275, 5290, 7257
 9826, 7276, 6117, 6937
 9827, 7276, 6937, 6887
 9828, 7277, 7169, 4718
 9829, 7281, 7277, 4718
 9830, 7278, 7202, 5451
 9831, 7278, 6927, 7210
 9832, 7471, 7279, 4820
 9833, 7279, 4821, 7089
 9834, 7470, 7280, 5219
 9835, 7280, 5220, 7092
 9836, 7435, 7433, 7281
 9837, 7281, 4719, 7256
 9838, 7490, 5257, 6220
 9839, 7282, 5258, 7233
 9840, 7622, 7283, 7397
 9841, 7283, 4820, 7217
 9842, 7284, 5219, 7219
 9843, 7398, 7284, 5204
 9844, 7285, 6855, 7041
 9845, 7285, 7041, 5338
 9846, 7286, 6851, 7038
 9847, 7286, 7038, 5436
 9848, 7287, 6666, 4662
 9849, 7287, 4662, 6963
 9850, 7288, 6667, 5455
 9851, 7288, 5455, 6962
 9852, 7289, 6669, 5350
 9853, 7289, 5350, 6960
 9854, 7315, 7290, 5112
 9855, 7290, 5113, 7131
 9856, 7325, 7291, 5309
 9857, 7291, 5340, 7130
 9858, 7316, 7292, 5320
 9859, 7292, 5351, 7144
 9860, 7323, 7293, 5465
 9861, 7293, 5464, 7143
 9862, 7321, 7294, 4692
 9863, 7294, 4661, 7142
 9864, 7434, 7295, 4812
 9865, 7295, 6977, 7152
 9866, 7296, 6507, 4993
 9867, 7519, 7296, 4993
 9868, 7576, 7440, 7297
 9869, 7297, 5413, 7145
 9870, 7552, 7298, 4901
 9871, 7298, 4900, 6809
 9872, 7577, 7299, 5467
 9873, 7299, 5468, 7146
 9874, 7300, 6508, 4859
 9875, 7518, 7300, 4859
 9876, 7301, 6517, 5086
 9877, 7301, 5086, 7249
 9878, 7302, 4758, 7149
 9879, 7418, 7302, 4728
 9880, 7303, 5292, 7258
 9881, 7303, 7258, 5281
 9882, 7304, 5157, 7148
 9883, 7417, 7304, 5127
 9884, 7506, 7305, 5428
 9885, 7305, 5419, 7164
 9886, 7306, 5427, 7042
 9887, 7569, 7437, 7306
 9888, 7803, 7307, 4693
 9889, 7307, 4694, 7154
 9890, 7308, 4664, 7043
 9891, 7308, 4663, 7154
 9892, 7309, 4889, 7044
 9893, 7309, 5446, 7155
 9894, 7809, 7310, 5456
 9895, 7310, 5447, 7155
 9896, 8737, 7415, 6929
 9897, 7311, 4977, 7129
 9898, 7312, 5337, 7045
 9899, 7573, 7449, 7312
 9900, 7505, 7313, 5306
 9901, 7313, 5305, 7166
 9902, 7314, 5436, 7038
 9903, 7314, 5143, 7157
 9904, 7802, 7315, 5112
 9905, 7315, 5142, 7157
 9906, 7501, 7316, 5320
 9907, 7316, 5319, 7162
 9908, 7513, 7317, 4885
 9909, 7317, 4926, 7251
 9910, 7318, 4886, 7039
 9911, 7572, 7446, 7318
 9912, 7319, 4665, 7040
 9913, 7570, 7445, 7319
 9914, 7511, 7419, 4697
 9915, 7320, 4697, 7254
 9916, 7834, 7321, 4692
 9917, 7321, 4693, 7163
 9918, 7517, 7322, 5419
 9919, 7322, 5410, 7253
 9920, 7833, 7323, 5465
 9921, 7323, 5456, 7165
 9922, 7324, 5338, 7041
 9923, 7324, 5339, 7160
 9924, 7806, 5309, 7796
 9925, 7325, 5308, 7160
 9926, 7699, 7326, 5431
 9927, 7326, 5440, 7181
 9928, 7515, 7327, 5305
 9929, 7327, 5304, 7255
 9930, 7629, 7328, 4980
 9931, 7328, 4949, 7151
 9932, 7447, 6996, 4765
 9933, 7333, 4748, 7187
 9934, 7499, 7330, 5495
 9935, 7574, 4740, 7498
 9936, 7451, 7331, 5051
 9937, 7331, 5050, 7183
 9938, 8135, 5486, 8034
 9939, 7332, 5495, 7179
 9940, 7333, 7187, 6807
 9941, 7333, 4747, 7329
 9942, 7495, 7334, 5440
 9943, 7581, 5139, 7455
 9944, 7410, 7335, 4950
 9945, 7502, 4982, 7412
 9946, 7500, 4881, 7338
 9947, 7336, 4882, 7193
 9948, 7512, 4709, 7019
 9949, 7373, 7337, 4708
 9950, 7541, 7500, 7338
 9951, 7338, 4881, 7223
 9952, 7696, 7455, 5139
 9953, 7744, 5108, 7340
 9954, 7459, 7340, 5108
 9955, 7369, 7340, 5107
 9956, 8537, 5301, 7216
 9957, 7341, 5332, 7229
 9958, 7568, 7450, 5088
 9959, 8602, 7342, 5056
 9960, 7419, 7343, 4697
 9961, 7343, 4728, 7122
 9962, 7345, 7344, 6614
 9963, 7344, 4698, 7234
 9964, 7345, 6614, 6533
 9965, 7345, 4699, 7226
 9966, 7597, 7346, 4942
 9967, 7346, 7073, 7222
 9968, 7347, 4912, 6530
 9969, 7432, 7347, 6612
 9970, 7356, 7348, 6616
 9971, 7348, 5097, 7236
 9972, 7420, 7349, 5096
 9973, 7349, 5127, 7123
 9974, 7525, 7350, 5410
 9975, 7350, 5401, 7021
 9976, 7523, 7351, 4926
 9977, 7351, 4957, 7013
 9978, 7586, 7460, 4892
 9979, 7352, 5450, 7210
 9980, 7464, 4697, 7343
 9981, 7353, 4698, 7016
 9982, 7354, 5071, 7239
 9983, 8735, 7516, 5070
 9984, 7524, 7355, 5304
 9985, 7355, 5303, 7022
 9986, 7356, 6616, 6531
 9987, 7356, 5098, 7230
 9988, 7357, 7079, 5067
 9989, 7531, 7357, 5066
 9990, 7358, 4757, 7252
 9991, 7358, 7252, 4758
 9992, 7522, 7458, 7359
 9993, 7359, 5281, 7258
 9994, 7360, 5156, 7250
 9995, 7360, 7250, 5157
 9996, 7491, 7361, 4669
 9997, 7493, 7361, 4638
 9998, 7535, 7362, 5180
 9999, 7535, 7520, 7362
10000, 7363, 5300, 6917
10001, 7363, 6736, 7215
10002, 7364, 5242, 7237
10003, 7528, 7364, 5243
10004, 7510, 7365, 5020
10005, 7414, 7365, 5021
10006, 7461, 7366, 4989
10007, 7578, 7366, 4988
10008, 8193, 5227, 7944
10009, 7605, 7485, 7367
10010, 7368, 6007, 5966
10011, 7368, 6343, 5179
10012, 7369, 5107, 6795
10013, 7369, 6795, 5137
10014, 7370, 7084, 7133
10015, 7456, 7370, 5392
10016, 7481, 7371, 4943
10017, 8725, 7371, 7596
10018, 7372, 7078, 7135
10019, 7463, 7372, 4710
10020, 7373, 4708, 6797
10021, 7373, 6797, 4738
10022, 7731, 7647, 7374
10023, 7374, 4893, 7193
10024, 7375, 6862, 4746
10025, 7477, 7391, 7375
10026, 7932, 5342, 6859
10027, 7764, 7399, 7376
10028, 7453, 5333, 6810
10029, 7874, 5302, 7773
10030, 7589, 7378, 7476
10031, 7378, 4920, 7211
10032, 7509, 7379, 5194
10033, 7379, 6343, 5193
10034, 7380, 5148, 7178
10035, 7380, 7178, 7124
10036, 7478, 7381, 5310
10037, 7381, 5309, 7291
10038, 7507, 7382, 5041
10039, 7617, 7382, 7507
10040, 7514, 7383, 5076
10041, 7383, 5075, 7174
10042, 7475, 7384, 5081
10043, 7384, 5112, 7290
10044, 7474, 7385, 4691
10045, 7385, 4692, 7294
10046, 7473, 7386, 5474
10047, 7386, 5465, 7293
10048, 7472, 7387, 5321
10049, 7387, 5320, 7292
10050, 7388, 6912, 5460
10051, 7388, 6822, 5459
10052, 7484, 6610, 5269
10053, 7389, 5310, 7197
10054, 7390, 5258, 7075
10055, 7390, 5259, 7112
10056, 7391, 4763, 6721
10057, 7391, 6721, 4764
10058, 7452, 7392, 5292
10059, 7632, 7392, 7452
10060, 7486, 4790, 7055
10061, 7883, 7492, 4789
10062, 7487, 5189, 7058
10063, 7886, 7494, 5188
10064, 7683, 7547, 7395
10065, 7547, 7530, 7395
10066, 7396, 7187, 4748
10067, 7691, 7435, 4748
10068, 7622, 7397, 4804
10069, 7397, 4805, 7260
10070, 7619, 7398, 5203
10071, 7398, 5204, 7261
10072, 7399, 5343, 7376
10073, 7497, 7399, 5374
10074, 7591, 7488, 4956
10075, 7400, 4988, 7184
10076, 7496, 7401, 5303
10077, 8211, 8023, 5302
10078, 7590, 5080, 7489
10079, 7402, 5081, 7183
10080, 7403, 4944, 7371
10081, 7504, 7403, 4975
10082, 7583, 7456, 7521
10083, 7404, 5392, 7192
10084, 7409, 7405, 4709
10085, 7498, 7405, 7409
10086, 7406, 5173, 7209
10087, 7406, 7209, 7071
10088, 7407, 4774, 7208
10089, 7407, 7208, 7070
10090, 7508, 7408, 4821
10091, 7408, 4822, 6519
10092, 7498, 7463, 7405
10093, 7409, 4709, 7337
10094, 7410, 4950, 6919
10095, 7410, 4949, 7328
10096, 7607, 7526, 5119
10097, 7411, 5087, 7069
10098, 7503, 7476, 4951
10099, 7412, 4951, 7180
10100, 7413, 6796, 6865
10101, 7413, 6865, 4643
10102, 7414, 5021, 5570
10103, 7414, 4990, 7095
10104, 7703, 7555, 7415
10105, 7415, 4977, 7311
10106, 8016, 7652, 4860
10107, 7551, 7416, 7548
10108, 7420, 7417, 5127
10109, 7554, 7417, 5126
10110, 7419, 7418, 4728
10111, 7553, 7418, 4727
10112, 7511, 4697, 7320
10113, 7556, 7511, 4696
10114, 7420, 5127, 7349
10115, 8021, 7420, 5096
10116, 7421, 6645, 5113
10117, 7421, 5113, 6968
10118, 7422, 6647, 5340
10119, 7422, 5340, 6966
10120, 7423, 6638, 5351
10121, 7423, 5351, 6970
10122, 7424, 6641, 4661
10123, 7424, 4661, 6972
10124, 7425, 6640, 5464
10125, 7425, 5464, 6973
10126, 7558, 4782, 7067
10127, 7970, 7557, 4783
10128, 7560, 5493, 7076
10129, 8109, 7559, 5494
10130, 7684, 5494, 7427
10131, 7428, 4741, 7272
10132, 7563, 4720, 7083
10133, 8120, 4750, 7916
10134, 7565, 5282, 7080
10135, 7641, 5291, 7452
10136, 7685, 5291, 7430
10137, 7431, 5290, 7275
10138, 7711, 7613, 4870
10139, 7432, 4911, 7347
10140, 7634, 7563, 7433
10141, 7433, 4719, 7281
10142, 8462, 8380, 6802
10143, 7434, 4811, 6977
10144, 7435, 7396, 4748
10145, 7435, 4749, 7433
10146, 7644, 4977, 7555
10147, 8522, 7436, 7723
10148, 7624, 7437, 5437
10149, 7437, 5428, 7153
10150, 7625, 7438, 4694
10151, 7739, 4695, 7570
10152, 7626, 7439, 5447
10153, 7740, 4890, 7572
10154, 7663, 7440, 7576
10155, 7440, 5422, 6915
10156, 7575, 7145, 5404
10157, 7889, 5403, 7825
10158, 7610, 7442, 5142
10159, 7736, 5437, 7569
10160, 7443, 5477, 6916
10161, 7443, 5468, 7299
10162, 7579, 7146, 5459
10163, 7881, 7444, 5458
10164, 7614, 7445, 4695
10165, 7445, 4696, 7158
10166, 7612, 7446, 4890
10167, 7446, 4885, 7159
10168, 7468, 4765, 7264
10169, 7447, 4748, 7329
10170, 7615, 7448, 5308
10171, 7735, 5307, 7573
10172, 7628, 7449, 5307
10173, 7449, 5306, 7156
10174, 7450, 5087, 7411
10175, 8355, 5088, 8195
10176, 7571, 7510, 5020
10177, 7862, 7779, 5050
10178, 7632, 7452, 5291
10179, 7452, 5292, 7303
10180, 7453, 6810, 7200
10181, 7453, 7200, 5302
10182, 7543, 7454, 4921
10183, 7454, 4922, 7338
10184, 7581, 5138, 7001
10185, 7696, 7587, 7455
10186, 7456, 5393, 7269
10187, 7456, 7269, 7370
10188, 7690, 7582, 4722
10189, 7457, 4690, 7268
10190, 7458, 5322, 7267
10191, 7458, 5281, 7359
10192, 7550, 7459, 5108
10193, 7588, 7459, 5077
10194, 7460, 4893, 7374
10195, 7752, 7586, 4892
10196, 7461, 4989, 6805
10197, 7461, 7184, 4988
10198, 7545, 7462, 5019
10199, 7462, 5020, 7262
10200, 7463, 4740, 7266
10201, 7463, 7266, 7372
10202, 7464, 7343, 7234
10203, 7464, 7234, 4698
10204, 7580, 7465, 5484
10205, 7755, 7687, 5474
10206, 7593, 7151, 4948
10207, 7921, 7466, 4979
10208, 7539, 7467, 5097
10209, 7467, 5096, 7349
10210, 7585, 7468, 4766
10211, 7691, 7447, 7468
10212, 7676, 4911, 7613
10213, 7469, 4942, 7346
10214, 7821, 7470, 7734
10215, 7470, 5220, 7280
10216, 7648, 7471, 4820
10217, 7666, 7471, 7648
10218, 7603, 7600, 7472
10219, 7756, 7472, 7600
10220, 7715, 7638, 5475
10221, 7473, 5465, 7386
10222, 7639, 7474, 4691
10223, 7758, 7474, 7717
10224, 7746, 7475, 7489
10225, 7475, 5112, 7384
10226, 7503, 4951, 7412
10227, 7532, 7476, 7503
10228, 7477, 4746, 5796
10229, 7477, 4763, 7391
10230, 7484, 7478, 5310
10231, 7729, 7478, 7630
10232, 7672, 7534, 4757
10233, 7479, 4774, 7407
10234, 7673, 7533, 5156
10235, 7480, 5173, 7406
10236, 7596, 7481, 4974
10237, 7597, 7481, 4943
10238, 7482, 5180, 7362
10239, 7482, 5164, 6914
10240, 7538, 7483, 7537
10241, 7483, 5067, 7079
10242, 7630, 7484, 5269
10243, 7484, 5310, 7389
10244, 8420, 7485, 5211
10245, 7485, 5226, 7367
10246, 7659, 7486, 4774
10247, 7659, 7623, 7486
10248, 7660, 7487, 5173
10249, 7660, 7620, 7487
10250, 7523, 4957, 7351
10251, 8560, 7591, 4956
10252, 7746, 7489, 5080
10253, 7489, 5081, 7402
10254, 7490, 5258, 7282
10255, 7490, 6220, 5299
10256, 7491, 4638, 7361
10257, 7491, 4669, 6978
10258, 7492, 7393, 4789
10259, 7492, 4804, 7397
10260, 7493, 4638, 5703
10261, 7493, 4637, 7093
10262, 7494, 7394, 5188
10263, 7494, 5203, 7398
10264, 7698, 7592, 5439
10265, 7495, 5139, 7334
10266, 7524, 5303, 7355
10267, 8185, 5262, 8129
10268, 7631, 7497, 5374
10269, 7594, 7497, 5375
10270, 7498, 7409, 4739
10271, 7574, 4739, 6998
10272, 8208, 5495, 8135
10273, 7499, 7272, 4740
10274, 7906, 7500, 7541
10275, 7500, 7336, 4881
10276, 7841, 5320, 7756
10277, 7501, 6725, 6665
10278, 7502, 7335, 4981
10279, 7923, 7502, 4981
10280, 7664, 7503, 4982
10281, 7664, 7532, 7503
10282, 7611, 7504, 4975
10283, 7604, 7504, 4976
10284, 7635, 7505, 5306
10285, 7720, 7640, 7505
10286, 7714, 7633, 5429
10287, 7506, 5419, 7305
10288, 7601, 5041, 7085
10289, 7617, 5009, 7527
10290, 7599, 7508, 4821
10291, 7854, 7508, 7848
10292, 7742, 7609, 5195
10293, 7509, 5179, 7379
10294, 7571, 5020, 7545
10295, 7761, 7510, 7621
10296, 7511, 7320, 4696
10297, 7669, 4696, 7614
10298, 7512, 7019, 6987
10299, 7512, 7220, 7337
10300, 7719, 7636, 4884
10301, 7513, 4926, 7317
10302, 7602, 7514, 5076
10303, 7938, 7514, 7935
10304, 7640, 7515, 5305
10305, 7721, 7646, 7515
10306, 7516, 5101, 6237
10307, 7516, 6237, 6211
10308, 7716, 7637, 5420
10309, 7517, 5410, 7322
10310, 7551, 7548, 4859
10311, 7542, 7518, 4860
10312, 7670, 4993, 6459
10313, 7544, 7519, 4994
10314, 7536, 7520, 7535
10315, 7520, 5165, 7244
10316, 7525, 5401, 7350
10317, 7583, 7521, 5402
10318, 7603, 7522, 5280
10319, 7603, 7546, 7522
10320, 7643, 7523, 4926
10321, 7727, 7523, 7643
10322, 7646, 7524, 5304
10323, 7730, 7524, 7646
10324, 7642, 7525, 5410
10325, 7724, 7642, 5411
10326, 7608, 5118, 7247
10327, 7968, 7607, 5119
10328, 7712, 7616, 7527
10329, 7527, 5040, 7382
10330, 7728, 7627, 5243
10331, 7528, 5227, 7367
10332, 7529, 4822, 6317
10333, 7529, 6299, 6334
10334, 7530, 5259, 7231
10335, 7530, 7231, 5300
10336, 7677, 7539, 7531
10337, 7531, 5097, 7230
10338, 7665, 7532, 4983
10339, 7532, 4952, 7476
10340, 7903, 7829, 7533
10341, 7829, 7660, 5173
10342, 7902, 7830, 7534
10343, 7830, 7659, 4774
10344, 7835, 7535, 5180
10345, 7536, 7535, 5181
10346, 7813, 5166, 7678
10347, 7536, 5165, 7520
10348, 7538, 7537, 5068
10349, 7537, 6932, 5099
10350, 7911, 7815, 7538
10351, 7815, 7679, 7538
10352, 7539, 5097, 7531
10353, 7763, 7539, 7677
10354, 8736, 8366, 4941
10355, 8736, 4910, 8366
10356, 7743, 4922, 7675
10357, 8009, 7906, 4923
10358, 7751, 7542, 4860
10359, 7542, 4843, 7172
10360, 7653, 4921, 7589
10361, 7795, 7543, 7653
10362, 7753, 7544, 4994
10363, 7544, 4963, 7170
10364, 8012, 7862, 5019
10365, 7571, 7545, 7451
10366, 7546, 5321, 7185
10367, 7546, 7185, 5322
10368, 7683, 7395, 5301
10369, 7655, 7547, 5260
10370, 8016, 7416, 7552
10371, 7548, 4860, 7518
10372, 7846, 7549, 7228
10373, 7549, 4994, 7519
10374, 7765, 7680, 5109
10375, 7550, 5077, 7459
10376, 7551, 4900, 7416
10377, 7759, 4859, 6342
10378, 7552, 7416, 7298
10379, 7652, 7552, 4901
10380, 7749, 7672, 7553
10381, 7553, 4757, 7358
10382, 7748, 7673, 7554
10383, 7554, 5156, 7360
10384, 7766, 7555, 7703
10385, 7766, 7644, 7555
10386, 7556, 4727, 7418
10387, 7556, 7419, 7511
10388, 8530, 4767, 7692
10389, 7557, 7270, 7426
10390, 7775, 7558, 4797
10391, 7775, 7750, 7558
10392, 7798, 5485, 7688
10393, 7559, 7271, 7427
10394, 7560, 7427, 5493
10395, 7562, 4742, 7060
10396, 7561, 5494, 7428
10397, 7561, 7428, 7272
10398, 7562, 7060, 4741
10399, 7562, 4741, 7428
10400, 7563, 7429, 4720
10401, 7563, 4719, 7433
10402, 7800, 4751, 7689
10403, 7564, 7274, 7429
10404, 7565, 7430, 5282
10405, 7566, 5283, 7063
10406, 7566, 7063, 5290
10407, 7566, 5290, 7431
10408, 7686, 7275, 5393
10409, 7632, 7567, 5394
10410, 8529, 5057, 8384
10411, 7568, 7342, 7450
10412, 7736, 5436, 7314
10413, 7569, 5437, 7437
10414, 7739, 4664, 7308
10415, 7570, 4695, 7445
10416, 7571, 7451, 5051
10417, 7621, 5051, 6841
10418, 7740, 4889, 7309
10419, 7572, 4890, 7446
10420, 7735, 5338, 7324
10421, 7573, 5307, 7449
10422, 7574, 6998, 7330
10423, 7574, 7330, 4740
10424, 7651, 7575, 5404
10425, 7575, 5403, 7441
10426, 7667, 7576, 5412
10427, 7663, 7576, 5421
10428, 7658, 7577, 5467
10429, 7694, 7577, 5476
10430, 8108, 8024, 5019
10431, 7578, 5019, 7462
10432, 7668, 7579, 5459
10433, 7579, 5458, 7444
10434, 7798, 7688, 5484
10435, 7687, 5475, 7638
10436, 7581, 7001, 7334
10437, 7581, 7334, 5139
10438, 7800, 7689, 4721
10439, 7690, 4722, 7639
10440, 7745, 7583, 5402
10441, 7583, 5393, 7456
10442, 7700, 4880, 6723
10443, 7584, 4921, 7454
10444, 8530, 7692, 4766
10445, 7691, 4749, 7435
10446, 7954, 5449, 7926
10447, 7586, 7352, 7460
10448, 7680, 7587, 5109
10449, 7587, 7339, 7455
10450, 7871, 7706, 5077
10451, 7588, 5076, 7224
10452, 7653, 7589, 4952
10453, 7697, 7589, 4921
10454, 7695, 7402, 5050
10455, 7998, 7590, 5049
10456, 8222, 7591, 4987
10457, 7591, 7400, 7488
10458, 7699, 5440, 7326
10459, 8051, 7698, 5439
10460, 7593, 4948, 6988
10461, 7593, 4979, 7466
10462, 7682, 5375, 6286
10463, 7594, 5344, 7199
10464, 8211, 5261, 8023
10465, 7595, 7401, 7496
10466, 7650, 7596, 4974
10467, 8725, 7596, 7650
10468, 7597, 4943, 7346
10469, 7817, 7708, 7597
10470, 7657, 7598, 7654
10471, 7598, 5070, 7354
10472, 7848, 7599, 4836
10473, 7599, 4821, 7471
10474, 7600, 5280, 7049
10475, 7600, 7049, 5279
10476, 7767, 7601, 5042
10477, 7767, 7747, 7601
10478, 7935, 7602, 5045
10479, 7706, 5076, 7588
10480, 7603, 5321, 7546
10481, 7603, 5280, 7600
10482, 8737, 4976, 7415
10483, 7604, 4945, 7190
10484, 7605, 7367, 5227
10485, 8264, 7605, 5212
10486, 7656, 7606, 7655
10487, 7606, 5243, 7364
10488, 7607, 5088, 7450
10489, 7607, 7411, 7526
10490, 7772, 7608, 5148
10491, 7772, 7741, 7608
10492, 7737, 5194, 7094
10493, 7742, 7645, 7509
10494, 7801, 7704, 5141
10495, 7610, 5437, 7442
10496, 7713, 7611, 4975
10497, 7770, 7703, 4976
10498, 8539, 7612, 8533
10499, 7612, 4885, 7446
10500, 7843, 7676, 7613
10501, 7613, 4911, 7432
10502, 7891, 7778, 7614
10503, 7778, 7669, 7614
10504, 7707, 7615, 5308
10505, 8580, 7805, 8532
10506, 7762, 7616, 7712
10507, 7616, 5040, 7527
10508, 7617, 7507, 5010
10509, 7983, 7617, 5010
10510, 7618, 4670, 6884
10511, 7618, 6884, 4639
10512, 7702, 7619, 5203
10513, 7725, 7619, 5218
10514, 7662, 7620, 5172
10515, 7620, 5188, 7394
10516, 7621, 6841, 5052
10517, 7621, 7510, 7571
10518, 7701, 7622, 4804
10519, 7726, 7622, 4819
10520, 7661, 7623, 4773
10521, 7623, 4789, 7393
10522, 8144, 8050, 5429
10523, 7624, 5428, 7437
10524, 7709, 7625, 4694
10525, 7891, 7804, 4726
10526, 7808, 7710, 5448
10527, 7626, 4890, 7439
10528, 7828, 7627, 7728
10529, 7627, 5227, 7528
10530, 8532, 8509, 7628
10531, 8509, 7635, 7628
10532, 7722, 7629, 4980
10533, 7629, 4981, 7335
10534, 7705, 7630, 5269
10535, 7729, 7630, 5268
10536, 7631, 5374, 5582
10537, 7631, 5546, 5581
10538, 7632, 5291, 7567
10539, 7948, 5394, 7927
10540, 7633, 5428, 7624
10541, 8119, 5429, 8063
10542, 7718, 4749, 7585
10543, 7634, 4750, 7429
10544, 7635, 5306, 7628
10545, 8468, 8435, 5264
10546, 7636, 4885, 7612
10547, 8511, 4884, 8042
10548, 7637, 5419, 7506
10549, 7888, 7716, 5420
10550, 7687, 7638, 5474
10551, 7880, 5475, 7865
10552, 7690, 7639, 4691
10553, 7856, 7717, 4722
10554, 7640, 5305, 7505
10555, 8460, 5264, 8419
10556, 7641, 7303, 7273
10557, 7641, 7430, 5291
10558, 7642, 5410, 7517
10559, 7898, 7825, 5402
10560, 7643, 4926, 7513
10561, 7727, 7643, 4925
10562, 7762, 7723, 5008
10563, 7644, 7436, 4977
10564, 8731, 5180, 7482
10565, 7645, 5179, 7509
10566, 7646, 5304, 7515
10567, 7730, 7646, 5263
10568, 7738, 7647, 4883
10569, 7647, 4892, 7460
10570, 7732, 4820, 7726
10571, 7666, 7648, 4835
10572, 7733, 5219, 7725
10573, 7734, 7649, 5234
10574, 7884, 7713, 7650
10575, 8725, 7650, 4975
10576, 7785, 5404, 7023
10577, 7927, 7651, 7785
10578, 8006, 7826, 7652
10579, 8016, 4860, 7548
10580, 7786, 7653, 4952
10581, 7653, 7543, 4921
10582, 7654, 5040, 7616
10583, 7657, 7654, 5039
10584, 7656, 7655, 5260
10585, 7655, 7237, 5259
10586, 7783, 5244, 7728
10587, 7656, 5243, 7606
10588, 7657, 5070, 7598
10589, 7996, 7909, 7657
10590, 7880, 7715, 5475
10591, 7658, 5476, 7577
10592, 7830, 4774, 7534
10593, 7659, 4773, 7623
10594, 7829, 5173, 7533
10595, 7660, 5172, 7620
10596, 7882, 4788, 7789
10597, 7661, 4789, 7623
10598, 7662, 5188, 7620
10599, 7975, 7887, 7662
10600, 7837, 7663, 5421
10601, 7663, 5422, 7440
10602, 7840, 7664, 4982
10603, 7664, 4983, 7532
10604, 7981, 7665, 4983
10605, 7665, 4952, 7532
10606, 7849, 7666, 4835
10607, 7666, 4836, 7599
10608, 7888, 7794, 5411
10609, 7667, 5421, 7576
10610, 7793, 5459, 7036
10611, 7947, 7668, 7926
10612, 7669, 4727, 7556
10613, 7669, 7556, 4696
10614, 7670, 6459, 5024
10615, 7670, 7228, 7549
10616, 7671, 6320, 4899
10617, 7671, 6820, 4900
10618, 7672, 4756, 7534
10619, 7672, 4757, 7553
10620, 7673, 5155, 7533
10621, 7673, 5156, 7554
10622, 7674, 6821, 5404
10623, 7674, 5404, 7145
10624, 7836, 7675, 4953
10625, 7675, 4922, 7543
10626, 8736, 7676, 4910
10627, 7676, 7540, 4911
10628, 7769, 7677, 5066
10629, 7769, 7763, 7677
10630, 7907, 7678, 5166
10631, 7678, 5165, 7536
10632, 7910, 7679, 5036
10633, 7679, 5067, 7538
10634, 8315, 5109, 8133
10635, 7680, 7550, 5108
10636, 7764, 7681, 5374
10637, 7681, 5373, 5583
10638, 7682, 6286, 6686
10639, 7682, 6686, 5344
10640, 7874, 5301, 7341
10641, 7683, 5260, 7547
10642, 7684, 7428, 5494
10643, 7684, 7427, 7560
10644, 7685, 7431, 5291
10645, 7685, 7430, 7565
10646, 7693, 5393, 7583
10647, 7686, 5394, 7567
10648, 7755, 5474, 7186
10649, 7687, 7465, 7580
10650, 7864, 7688, 5485
10651, 7864, 7844, 7688
10652, 7892, 7689, 4751
10653, 7892, 7799, 7689
10654, 7754, 4691, 7191
10655, 7690, 7457, 7582
10656, 7691, 4748, 7447
10657, 7691, 7468, 7585
10658, 7842, 7718, 7692
10659, 7842, 7692, 4767
10660, 8036, 7943, 5394
10661, 7693, 5394, 7686
10662, 7824, 7694, 5476
10663, 7694, 5477, 7443
10664, 7862, 5050, 7451
10665, 7695, 5049, 7590
10666, 7879, 7787, 5139
10667, 7696, 5109, 7587
10668, 7700, 7697, 4921
10669, 7697, 4920, 7378
10670, 8014, 7879, 5140
10671, 7698, 7495, 7592
10672, 7895, 7699, 5431
10673, 7895, 7807, 7699
10674, 7814, 7700, 6723
10675, 7700, 4921, 7584
10676, 7896, 7810, 4803
10677, 7701, 4819, 7622
10678, 7702, 5218, 7619
10679, 7811, 7702, 5203
10680, 7770, 4976, 7611
10681, 7770, 7766, 7703
10682, 7802, 5142, 7315
10683, 8082, 7801, 5141
10684, 7705, 5269, 6611
10685, 8065, 7977, 5268
10686, 7706, 7588, 5077
10687, 7871, 7774, 7706
10688, 7866, 7806, 7796
10689, 8591, 5267, 8077
10690, 7885, 7708, 4973
10691, 7708, 7481, 7597
10692, 7803, 4694, 7307
10693, 8019, 7936, 4726
10694, 7809, 5447, 7310
10695, 8007, 7808, 5448
10696, 7819, 4870, 6613
10697, 7860, 4869, 7711
10698, 8522, 7723, 5009
10699, 7762, 7712, 7723
10700, 7822, 7713, 5006
10701, 7713, 4975, 7650
10702, 7714, 5420, 7637
10703, 7714, 7506, 7633
10704, 7757, 7715, 5466
10705, 7715, 7473, 7638
10706, 7716, 5411, 7642
10707, 7716, 7517, 7637
10708, 7758, 7717, 4723
10709, 7717, 7474, 7639
10710, 7718, 4750, 7634
10711, 7718, 7634, 4749
10712, 7719, 4925, 7643
10713, 7719, 7513, 7636
10714, 7720, 5264, 7640
10715, 7720, 7505, 7635
10716, 7721, 5263, 7646
10717, 7721, 7515, 7640
10718, 7847, 7722, 4980
10719, 7924, 7722, 7847
10720, 7723, 7436, 7644
10721, 7723, 7644, 5008
10722, 7724, 5402, 7521
10723, 7724, 7525, 7642
10724, 7733, 7725, 5218
10725, 7725, 5219, 7284
10726, 7732, 7726, 4819
10727, 7726, 4820, 7283
10728, 8517, 7727, 4925
10729, 7727, 7488, 7523
10730, 7828, 7728, 5244
10731, 7728, 5243, 7656
10732, 7796, 7729, 5268
10733, 7729, 5309, 7478
10734, 8356, 5263, 8292
10735, 7730, 7496, 7524
10736, 7832, 7731, 4882
10737, 7731, 4883, 7647
10738, 7900, 7732, 4819
10739, 7732, 7648, 4820
10740, 7901, 7733, 5218
10741, 7733, 7649, 5219
10742, 7845, 7734, 5234
10743, 7821, 7734, 5235
10744, 7735, 7324, 7448
10745, 7735, 7448, 5307
10746, 7736, 7314, 7442
10747, 7736, 7442, 5437
10748, 7771, 6930, 5210
10749, 7737, 5195, 7609
10750, 7899, 4891, 7823
10751, 7738, 4892, 7647
10752, 7739, 7308, 7438
10753, 7739, 7438, 4695
10754, 7740, 7309, 7439
10755, 7740, 7439, 4890
10756, 7776, 7741, 5149
10757, 7741, 5119, 7526
10758, 8000, 7835, 5195
10759, 7742, 5180, 7645
10760, 7743, 4923, 7541
10761, 7743, 7541, 4922
10762, 7744, 7221, 7339
10763, 7744, 7339, 5108
10764, 7825, 7745, 5402
10765, 8036, 5403, 7943
10766, 7797, 7746, 5080
10767, 7760, 7746, 5111
10768, 7768, 7747, 7767
10769, 7747, 5010, 7507
10770, 7831, 7748, 5126
10771, 7831, 7781, 7748
10772, 7792, 7778, 4726
10773, 7792, 7782, 7749
10774, 7777, 7750, 4798
10775, 7750, 4783, 7426
10776, 7878, 7751, 7826
10777, 7751, 4843, 7542
10778, 8007, 7752, 7823
10779, 7752, 5449, 7586
10780, 7876, 7753, 7827
10781, 7753, 4963, 7544
10782, 7754, 7191, 4690
10783, 7754, 7457, 7690
10784, 7755, 7186, 5483
10785, 7755, 7465, 7687
10786, 7841, 5279, 6725
10787, 7756, 5320, 7472
10788, 7904, 7833, 7757
10789, 7757, 5465, 7473
10790, 7839, 7834, 7758
10791, 7758, 4692, 7474
10792, 7759, 6342, 6320
10793, 7759, 6320, 7671
10794, 7838, 7802, 7760
10795, 7760, 5112, 7475
10796, 7761, 5052, 5606
10797, 7761, 5021, 7510
10798, 7875, 7762, 5008
10799, 8707, 7762, 7875
10800, 7920, 7763, 5065
10801, 7763, 5096, 7539
10802, 7764, 5374, 7399
10803, 7932, 7764, 7376
10804, 8209, 8048, 5078
10805, 7765, 7550, 7680
10806, 7979, 7766, 5007
10807, 7766, 5008, 7644
10808, 8094, 8018, 5011
10809, 7768, 7767, 5011
10810, 7847, 7768, 5011
10811, 7921, 7873, 7768
10812, 7872, 7769, 5066
10813, 8213, 7769, 7971
10814, 7822, 7770, 7611
10815, 7770, 5007, 7766
10816, 8464, 7922, 5210
10817, 7771, 5195, 7737
10818, 7918, 5148, 7812
10819, 7772, 5149, 7741
10820, 8023, 7773, 5302
10821, 7949, 5261, 7893
10822, 8116, 7774, 5046
10823, 7774, 7602, 7706
10824, 8230, 8170, 4798
10825, 7775, 4798, 7750
10826, 8056, 7967, 7776
10827, 7967, 7869, 7776
10828, 7969, 4784, 7870
10829, 7777, 4783, 7750
10830, 7891, 7614, 4695
10831, 7792, 4726, 7782
10832, 8012, 7779, 7862
10833, 8025, 7779, 8012
10834, 7868, 7780, 4901
10835, 8006, 7780, 4902
10836, 7934, 7781, 5125
10837, 7781, 5155, 7673
10838, 7936, 7782, 4726
10839, 7782, 4756, 7672
10840, 7893, 7656, 5260
10841, 8057, 7783, 5261
10842, 8069, 7885, 4973
10843, 7884, 7784, 5005
10844, 7785, 7023, 5395
10845, 7927, 7785, 5395
10846, 7795, 4953, 7675
10847, 7786, 4952, 7665
10848, 8014, 7787, 7879
10849, 7787, 5109, 7696
10850, 7881, 7788, 5467
10851, 7880, 7865, 7658
10852, 7973, 7789, 4788
10853, 7789, 4789, 7661
10854, 7974, 7790, 5187
10855, 7790, 5188, 7662
10856, 7791, 5069, 6726
10857, 7791, 5070, 7657
10858, 7792, 7749, 4727
10859, 7792, 4727, 7669
10860, 7793, 7036, 5450
10861, 7926, 7793, 5450
10862, 7889, 7441, 5403
10863, 7888, 5411, 7716
10864, 7795, 7675, 7543
10865, 7795, 7653, 7786
10866, 7894, 7866, 7796
10867, 7806, 7707, 5308
10868, 7997, 7929, 5079
10869, 7797, 5111, 7746
10870, 7798, 5484, 7271
10871, 7798, 7559, 5485
10872, 7856, 7799, 4752
10873, 7799, 4722, 7582
10874, 7800, 4721, 7274
10875, 7800, 7564, 4751
10876, 8190, 7801, 5438
10877, 7801, 7610, 7704
10878, 7802, 7704, 5142
10879, 7802, 5112, 7760
10880, 7945, 4693, 7852
10881, 7945, 7933, 7803
10882, 7891, 4726, 7778
10883, 7804, 7625, 7709
10884, 8532, 7805, 5266
10885, 7805, 7615, 7707
10886, 7806, 5308, 7325
10887, 7806, 7325, 5309
10888, 7857, 7807, 5430
10889, 7807, 5439, 7592
10890, 8533, 7808, 4891
10891, 7808, 7626, 7710
10892, 7946, 5456, 7937
10893, 7946, 7937, 5457
10894, 8729, 4804, 7883
10895, 8690, 8596, 4818
10896, 8728, 5203, 7886
10897, 8691, 8583, 5217
10898, 7812, 5148, 7380
10899, 7907, 7812, 7678
10900, 7908, 7536, 5181
10901, 8136, 7813, 5182
10902, 7814, 6723, 6660
10903, 7814, 4920, 7697
10904, 7911, 7538, 5068
10905, 8123, 5037, 8013
10906, 7816, 5066, 7357
10907, 7816, 5067, 7679
10908, 7964, 7861, 4942
10909, 7817, 4973, 7708
10910, 7858, 7818, 4834
10911, 7818, 4835, 7648
10912, 7819, 6613, 4853
10913, 7963, 7860, 7819
10914, 7859, 7820, 5233
10915, 7820, 5234, 7649
10916, 7890, 7821, 5235
10917, 7821, 5220, 7470
10918, 7822, 7611, 7713
10919, 7867, 7822, 5006
10920, 8007, 7823, 4891
10921, 7823, 4892, 7738
10922, 7864, 7824, 5476
10923, 8041, 7204, 5477
10924, 7825, 5403, 7745
10925, 7898, 5402, 7724
10926, 7826, 4860, 7652
10927, 7878, 7826, 4861
10928, 7877, 4994, 7846
10929, 7876, 7827, 4995
10930, 7853, 7828, 5244
10931, 7915, 7828, 5228
10932, 7903, 7533, 5155
10933, 7829, 5172, 7660
10934, 7902, 7534, 4756
10935, 7830, 4773, 7659
10936, 7905, 7831, 5126
10937, 7930, 7831, 7905
10938, 7906, 7832, 4882
10939, 8030, 7832, 8009
10940, 7937, 7833, 7904
10941, 7833, 5456, 7323
10942, 7852, 7834, 7839
10943, 7834, 4693, 7321
10944, 8064, 7835, 8000
10945, 7835, 5180, 7742
10946, 7928, 7836, 4953
10947, 8110, 7836, 4954
10948, 7914, 7837, 5421
10949, 8542, 7837, 7986
10950, 7912, 7838, 5111
10951, 7838, 5141, 7704
10952, 7913, 7839, 4723
10953, 7852, 7839, 4724
10954, 8067, 4982, 8033
10955, 7991, 7917, 7840
10956, 7841, 6725, 7501
10957, 7841, 7501, 5320
10958, 7989, 7916, 4767
10959, 7842, 4750, 7718
10960, 7995, 7925, 4869
10961, 7843, 4910, 7676
10962, 7865, 5476, 7658
10963, 7844, 5475, 7580
10964, 8711, 8068, 5235
10965, 7845, 5235, 7734
10966, 7877, 7846, 5025
10967, 7846, 4994, 7549
10968, 7921, 7847, 4980
10969, 7924, 5012, 7851
10970, 7855, 7848, 4836
10971, 7855, 7854, 7848
10972, 7960, 7849, 4835
10973, 8092, 7957, 7849
10974, 7850, 5405, 6821
10975, 7850, 6821, 7674
10976, 7993, 7923, 7851
10977, 7851, 4981, 7722
10978, 7945, 4724, 7933
10979, 7852, 4693, 7834
10980, 8058, 7853, 7955
10981, 7853, 5228, 7828
10982, 7854, 4837, 6580
10983, 7854, 4822, 7508
10984, 7957, 7855, 4836
10985, 8148, 7855, 7957
10986, 7856, 4722, 7799
10987, 8272, 8159, 8151
10988, 8118, 7857, 5430
10989, 7857, 5439, 7807
10990, 8122, 8052, 7858
10991, 8052, 7960, 7858
10992, 7966, 7919, 7859
10993, 7859, 5234, 7820
10994, 8070, 7860, 4852
10995, 7860, 7711, 7819
10996, 8422, 7861, 7964
10997, 7861, 4973, 7817
10998, 7862, 7451, 7545
10999, 7862, 7545, 5019
11000, 7994, 7928, 4953
11001, 7863, 4953, 7786
11002, 8022, 7864, 5485
11003, 7864, 5476, 7844
11004, 7880, 7658, 7788
11005, 7865, 5475, 7844
11006, 7866, 5267, 7707
11007, 7866, 7707, 7806
11008, 8084, 8074, 7867
11009, 7867, 5007, 7822
11010, 7962, 4901, 7175
11011, 8652, 8612, 4902
11012, 8053, 7869, 5120
11013, 7869, 5119, 7776
11014, 8055, 4768, 7989
11015, 7870, 4783, 7777
11016, 8048, 7956, 5077
11017, 7871, 5046, 7774
11018, 8727, 5066, 7816
11019, 8540, 8338, 5034
11020, 8004, 7873, 4979
11021, 7873, 5010, 7768
11022, 7874, 7341, 7377
11023, 7874, 7377, 5302
11024, 7979, 7875, 5008
11025, 8707, 7875, 5039
11026, 8008, 7876, 4995
11027, 8274, 4964, 8225
11028, 8044, 7877, 5025
11029, 7877, 7827, 4994
11030, 8005, 7878, 4861
11031, 8558, 7878, 4844
11032, 7879, 5139, 7495
11033, 7879, 7698, 5140
11034, 7880, 7788, 5466
11035, 7880, 5466, 7715
11036, 7881, 5467, 7444
11037, 8200, 5458, 8145
11038, 7972, 7661, 4773
11039, 8175, 7882, 4772
11040, 7883, 4804, 7492
11041, 7883, 4789, 7789
11042, 7961, 7884, 5005
11043, 7884, 5006, 7713
11044, 7885, 4974, 7708
11045, 8069, 7988, 7885
11046, 7886, 5203, 7494
11047, 7886, 5188, 7790
11048, 7975, 7662, 5172
11049, 8177, 7887, 5171
11050, 8062, 5420, 7985
11051, 7888, 7667, 7794
11052, 7889, 7794, 5412
11053, 7889, 5412, 7441
11054, 7982, 7890, 5235
11055, 8708, 7890, 5236
11056, 7891, 4695, 7625
11057, 7891, 7625, 7804
11058, 8187, 4751, 8097
11059, 7892, 4752, 7799
11060, 7949, 7893, 5260
11061, 7893, 5261, 7783
11062, 7977, 7894, 5268
11063, 8010, 7894, 7977
11064, 8542, 7986, 5431
11065, 7895, 5430, 7807
11066, 8390, 7896, 4818
11067, 7896, 7701, 7810
11068, 8334, 7897, 5217
11069, 7897, 7702, 7811
11070, 7898, 7724, 5411
11071, 7898, 5411, 7794
11072, 7976, 7738, 4883
11073, 8539, 7899, 4884
11074, 8293, 8251, 4834
11075, 7900, 4834, 7818
11076, 8244, 8191, 5233
11077, 7901, 5233, 7820
11078, 7902, 4773, 7830
11079, 8003, 7902, 4756
11080, 7903, 5172, 7829
11081, 8002, 7903, 5155
11082, 7939, 7904, 5466
11083, 7939, 7937, 7904
11084, 7987, 7905, 5126
11085, 8183, 7930, 7905
11086, 7906, 4882, 7500
11087, 7906, 7541, 4923
11088, 7941, 7907, 5166
11089, 7918, 5149, 7772
11090, 7953, 7908, 5181
11091, 7908, 5182, 7813
11092, 7996, 7657, 5039
11093, 8160, 5038, 8149
11094, 7942, 7910, 5036
11095, 8727, 5035, 7872
11096, 7958, 5068, 6981
11097, 7911, 5037, 7815
11098, 8027, 8015, 7912
11099, 7912, 5141, 7838
11100, 7980, 7913, 4723
11101, 8083, 8017, 7913
11102, 8119, 8063, 7985
11103, 7986, 7914, 5430
11104, 7944, 7915, 5228
11105, 7915, 5227, 7627
11106, 8061, 7916, 7989
11107, 7916, 4750, 7842
11108, 8404, 8066, 8358
11109, 7917, 4983, 7840
11110, 7918, 7772, 5148
11111, 7918, 7812, 7907
11112, 7919, 5234, 7859
11113, 7992, 7919, 5250
11114, 7920, 5096, 7763
11115, 8011, 7920, 5065
11116, 7921, 7768, 7847
11117, 7921, 4980, 7466
11118, 8464, 8224, 7922
11119, 8000, 7922, 5196
11120, 8033, 7923, 7993
11121, 7923, 4982, 7502
11122, 7924, 7847, 5011
11123, 8018, 7924, 5011
11124, 8071, 7925, 7995
11125, 7925, 4910, 7843
11126, 7954, 5450, 7352
11127, 7947, 7926, 5449
11128, 7948, 5395, 7392
11129, 7943, 7927, 5394
11130, 7994, 4953, 7863
11131, 8534, 7928, 8028
11132, 7998, 5080, 7590
11133, 8180, 8133, 5110
11134, 7999, 7930, 5094
11135, 7930, 5125, 7831
11136, 7951, 7931, 5457
11137, 7931, 5448, 7710
11138, 7932, 6859, 5373
11139, 7932, 5373, 7764
11140, 7950, 7933, 4724
11141, 7933, 4725, 7709
11142, 7934, 5155, 7781
11143, 8020, 7934, 5125
11144, 7940, 7935, 5045
11145, 7940, 7938, 7935
11146, 8075, 8037, 4755
11147, 7936, 4756, 7782
11148, 7946, 5457, 7931
11149, 7937, 5456, 7833
11150, 8049, 7938, 5044
11151, 7938, 5075, 7514
11152, 7939, 5457, 7937
11153, 7939, 5466, 7788
11154, 8043, 8031, 7940
11155, 8250, 8199, 5044
11156, 8137, 7941, 8090
11157, 7941, 5149, 7907
11158, 8046, 7942, 5036
11159, 8271, 7942, 8095
11160, 8036, 5394, 7693
11161, 7943, 5403, 7651
11162, 8093, 7944, 5228
11163, 8193, 8139, 5212
11164, 7945, 7803, 4693
11165, 7945, 7852, 4724
11166, 7946, 7931, 7809
11167, 7946, 7809, 5456
11168, 8091, 5449, 8045
11169, 7947, 5458, 7668
11170, 7948, 7392, 7632
11171, 7948, 7632, 5394
11172, 7949, 5260, 7683
11173, 8023, 7949, 7773
11174, 8155, 4724, 8017
11175, 8197, 8153, 8155
11176, 8091, 5458, 7947
11177, 7951, 5448, 7931
11178, 8040, 7952, 5026
11179, 7952, 4995, 7827
11180, 8064, 7953, 5181
11181, 8156, 7953, 8152
11182, 7954, 7352, 7586
11183, 7954, 7586, 5449
11184, 8129, 5245, 7955
11185, 8058, 7955, 5245
11186, 8209, 7956, 8048
11187, 8212, 7871, 7956
11188, 7957, 4836, 7849
11189, 8148, 4852, 7963
11190, 8160, 5069, 7909
11191, 8149, 7911, 7958
11192, 8549, 8082, 8051
11193, 7959, 5439, 7857
11194, 7960, 4835, 7858
11195, 8092, 7960, 4851
11196, 8046, 7961, 5005
11197, 8123, 8013, 7961
11198, 7962, 7175, 4932
11199, 8088, 7962, 4932
11200, 7965, 7963, 4853
11201, 7963, 4852, 7860
11202, 8422, 7964, 4941
11203, 7964, 4942, 7469
11204, 7965, 4853, 6443
11205, 7965, 6443, 4837
11206, 8081, 8077, 5250
11207, 7966, 5250, 7919
11208, 8056, 7776, 5149
11209, 8227, 7967, 5150
11210, 7968, 5088, 7607
11211, 7968, 5119, 7869
11212, 8054, 7777, 4798
11213, 8252, 7969, 4799
11214, 8055, 7989, 7970
11215, 7970, 4767, 7557
11216, 8213, 5034, 8079
11217, 7971, 7769, 7872
11218, 7978, 4773, 7902
11219, 7972, 4772, 7882
11220, 8038, 7973, 4788
11221, 8729, 4803, 7810
11222, 8039, 7974, 5187
11223, 8728, 5202, 7811
11224, 7984, 5172, 7903
11225, 7975, 5171, 7887
11226, 8042, 7976, 4883
11227, 7976, 4884, 7899
11228, 8065, 5268, 7705
11229, 8080, 5251, 7992
11230, 8003, 7978, 7902
11231, 7978, 4772, 7972
11232, 8074, 8029, 7979
11233, 8074, 7979, 5007
11234, 8059, 7980, 4723
11235, 8083, 4754, 8017
11236, 7990, 4983, 7917
11237, 7981, 4984, 7863
11238, 8068, 8047, 7982
11239, 7982, 5236, 7890
11240, 8522, 7983, 8004
11241, 7983, 5009, 7617
11242, 8002, 7984, 7903
11243, 7984, 5171, 7975
11244, 8062, 5421, 7667
11245, 8119, 5420, 7714
11246, 7986, 7837, 7914
11247, 7986, 5430, 7895
11248, 7987, 5126, 7417
11249, 8021, 7987, 7420
11250, 8095, 7988, 5004
11251, 7988, 7784, 7885
11252, 8061, 7989, 4768
11253, 7989, 4767, 7970
11254, 8066, 7990, 7917
11255, 8404, 7981, 7990
11256, 8031, 7991, 5013
11257, 7991, 5014, 7917
11258, 8080, 5250, 8010
11259, 8711, 5251, 8068
11260, 8035, 7993, 5012
11261, 8033, 7993, 5013
11262, 7994, 7863, 4984
11263, 8515, 4984, 8358
11264, 8071, 7995, 4868
11265, 8070, 7995, 4869
11266, 8029, 5039, 7875
11267, 7996, 5038, 7909
11268, 8001, 7997, 5110
11269, 7997, 7797, 7929
11270, 8101, 7998, 5049
11271, 8101, 8087, 7998
11272, 7999, 5125, 7930
11273, 8131, 7999, 5094
11274, 8000, 5195, 7922
11275, 8064, 8000, 5196
11276, 8001, 5111, 7797
11277, 8027, 5110, 8026
11278, 8076, 5155, 7934
11279, 8504, 5154, 8425
11280, 8075, 4756, 7936
11281, 8089, 8003, 4755
11282, 8004, 4979, 7128
11283, 8522, 8004, 4978
11284, 8115, 8073, 4862
11285, 8005, 4844, 7878
11286, 8114, 8006, 4902
11287, 8006, 4861, 7826
11288, 8007, 4891, 7808
11289, 8045, 8007, 5448
11290, 8113, 8072, 4996
11291, 8008, 4964, 7876
11292, 8032, 8009, 4923
11293, 8032, 8030, 8009
11294, 8081, 5250, 7966
11295, 8010, 5267, 7894
11296, 8213, 8079, 5065
11297, 8086, 8021, 7920
11298, 8024, 8012, 5019
11299, 8025, 8012, 8024
11300, 8013, 5006, 7961
11301, 8084, 8013, 5037
11302, 8027, 8014, 5140
11303, 8027, 8026, 8014
11304, 8082, 5140, 8051
11305, 8015, 5141, 7912
11306, 8016, 7548, 7416
11307, 8016, 7552, 7652
11308, 8155, 8017, 4754
11309, 8017, 4724, 7913
11310, 8094, 5011, 7767
11311, 8138, 8018, 8094
11312, 8019, 7804, 4725
11313, 8037, 8019, 4725
11314, 8020, 5125, 7999
11315, 8085, 8020, 5124
11316, 8021, 5095, 7987
11317, 8021, 5096, 7920
11318, 8034, 8022, 5485
11319, 8041, 8022, 8034
11320, 8211, 5302, 7401
11321, 8023, 5261, 7949
11322, 8108, 5019, 7578
11323, 8158, 5018, 8024
11324, 8130, 8025, 5018
11325, 8519, 8025, 8130
11326, 8133, 8026, 5110
11327, 8026, 5109, 7787
11328, 8027, 5140, 8015
11329, 8027, 8001, 5110
11330, 8534, 8028, 4985
11331, 8028, 7928, 7994
11332, 8029, 7875, 7979
11333, 8029, 5038, 7996
11334, 8663, 8042, 8030
11335, 8030, 4883, 7832
11336, 8250, 5013, 8199
11337, 8043, 7940, 5045
11338, 8110, 8032, 4923
11339, 8543, 8032, 8173
11340, 8067, 5013, 7991
11341, 8033, 4982, 7923
11342, 8109, 8034, 5485
11343, 8135, 8034, 8109
11344, 8096, 8035, 5012
11345, 8199, 5013, 8035
11346, 8036, 7693, 7745
11347, 8036, 7745, 5403
11348, 8153, 4725, 7950
11349, 8075, 4755, 8003
11350, 8174, 8038, 8111
11351, 8038, 4803, 7973
11352, 8039, 5202, 7974
11353, 8112, 8039, 5187
11354, 8194, 8150, 8040
11355, 8040, 4995, 7952
11356, 8041, 5486, 7204
11357, 8041, 7824, 8022
11358, 8663, 8592, 8042
11359, 8042, 4883, 8030
11360, 8116, 5045, 7774
11361, 8043, 5014, 8031
11362, 8341, 8298, 5026
11363, 8044, 5026, 7952
11364, 8045, 5449, 7752
11365, 8045, 5448, 7951
11366, 8095, 8046, 5005
11367, 8123, 8046, 5036
11368, 8047, 5252, 6442
11369, 8047, 6442, 5236
11370, 8048, 5077, 7550
11371, 8048, 7765, 5078
11372, 8198, 8049, 8154
11373, 8049, 5075, 7938
11374, 8144, 5429, 7633
11375, 8050, 5438, 7959
11376, 8051, 5140, 7698
11377, 8051, 5439, 7959
11378, 8134, 8052, 4850
11379, 8052, 4851, 7960
11380, 8102, 8053, 5120
11381, 8117, 8053, 5089
11382, 8105, 8054, 4798
11383, 8054, 4799, 7969
11384, 8055, 7970, 7870
11385, 8106, 8055, 4784
11386, 8545, 5149, 7941
11387, 8056, 5150, 7967
11388, 8057, 5244, 7783
11389, 8185, 5261, 7595
11390, 8107, 8058, 5245
11391, 8127, 8058, 5229
11392, 8059, 4723, 7717
11393, 8272, 8059, 7856
11394, 8191, 8142, 5233
11395, 8060, 5249, 7966
11396, 8097, 8061, 4768
11397, 8120, 8061, 8097
11398, 8062, 7667, 7888
11399, 8062, 7888, 5420
11400, 8118, 5429, 8050
11401, 8063, 7914, 7985
11402, 8152, 8064, 5196
11403, 8064, 5181, 7835
11404, 8098, 8065, 7705
11405, 8065, 5251, 7977
11406, 8066, 7917, 5014
11407, 8358, 8066, 5015
11408, 8067, 7991, 7840
11409, 8067, 7840, 4982
11410, 8711, 5235, 7845
11411, 8126, 8068, 5251
11412, 8182, 8128, 4973
11413, 8069, 5004, 7988
11414, 8070, 4869, 7860
11415, 8181, 8092, 4851
11416, 8099, 8071, 4868
11417, 8124, 8071, 4909
11418, 8072, 4995, 8040
11419, 8279, 8113, 4996
11420, 8114, 4861, 8006
11421, 8335, 8115, 4862
11422, 8074, 5038, 8029
11423, 8074, 5007, 7867
11424, 8075, 8003, 4756
11425, 8075, 7936, 8037
11426, 8085, 7934, 8020
11427, 8076, 5154, 8002
11428, 8100, 8077, 8081
11429, 8077, 5267, 8010
11430, 8104, 8078, 5093
11431, 8078, 5124, 8020
11432, 8162, 8079, 5034
11433, 8162, 8141, 8079
11434, 8080, 7977, 5251
11435, 8080, 7992, 5250
11436, 8081, 7966, 5249
11437, 8100, 8081, 5249
11438, 8549, 7959, 5438
11439, 8082, 5141, 8015
11440, 8083, 7980, 4753
11441, 8277, 8083, 4753
11442, 8149, 5037, 7911
11443, 8084, 5038, 8074
11444, 8146, 8085, 5124
11445, 8085, 5154, 8076
11446, 8226, 8132, 5064
11447, 8086, 5095, 8021
11448, 8103, 8087, 5048
11449, 8087, 5079, 7929
11450, 8121, 8088, 4932
11451, 8652, 4933, 8612
11452, 8197, 8143, 4755
11453, 8089, 4772, 7978
11454, 8136, 8090, 5166
11455, 8137, 8090, 5167
11456, 8145, 7951, 5457
11457, 8091, 7947, 5449
11458, 8181, 4851, 8125
11459, 8092, 4852, 7957
11460, 8140, 5228, 8127
11461, 8139, 8093, 5213
11462, 8094, 7767, 5042
11463, 8138, 8094, 5042
11464, 8271, 8095, 5004
11465, 8095, 7942, 8046
11466, 8201, 5043, 8154
11467, 8096, 5012, 8018
11468, 8164, 8097, 4768
11469, 8256, 8237, 8187
11470, 8098, 7705, 6611
11471, 8126, 5252, 8047
11472, 8229, 8099, 8166
11473, 8099, 4909, 8071
11474, 8495, 5249, 8326
11475, 8591, 5266, 7805
11476, 8196, 5049, 8130
11477, 8101, 5048, 8087
11478, 8228, 8102, 8167
11479, 8102, 5089, 8053
11480, 8215, 8168, 8103
11481, 8103, 5079, 8087
11482, 8104, 5124, 8078
11483, 8284, 8232, 8104
11484, 8170, 8105, 4798
11485, 8378, 8105, 8377
11486, 8253, 8206, 4785
11487, 8106, 4768, 8055
11488, 8240, 8107, 8172
11489, 8107, 5229, 8058
11490, 8108, 7578, 4988
11491, 8222, 8158, 8108
11492, 8109, 5485, 7559
11493, 8208, 8135, 8109
11494, 8110, 4923, 7743
11495, 8584, 8547, 8499
11496, 8175, 8111, 4788
11497, 8174, 8111, 4787
11498, 8177, 8112, 5187
11499, 8176, 8112, 5186
11500, 8535, 8113, 4965
11501, 8113, 8008, 8072
11502, 8219, 8114, 4902
11503, 8219, 8205, 8114
11504, 8536, 8115, 4845
11505, 8115, 8005, 8073
11506, 8161, 8147, 8116
11507, 8161, 8116, 5046
11508, 8195, 8117, 5089
11509, 8117, 5088, 7968
11510, 8118, 8050, 7857
11511, 8118, 5430, 8063
11512, 8119, 7985, 5420
11513, 8119, 7714, 5429
11514, 8120, 4751, 7564
11515, 8120, 7564, 4750
11516, 8614, 8121, 8225
11517, 8121, 4933, 8088
11518, 8251, 8203, 4834
11519, 8122, 4850, 8052
11520, 8123, 5036, 7815
11521, 8123, 7815, 5037
11522, 8165, 8124, 4909
11523, 8124, 4910, 7925
11524, 8184, 4851, 8134
11525, 8125, 7995, 8070
11526, 8126, 8047, 8068
11527, 8126, 5251, 8065
11528, 8140, 8127, 5229
11529, 8127, 5228, 7853
11530, 8214, 8128, 4972
11531, 8207, 8069, 8128
11532, 8239, 8129, 5262
11533, 8129, 7955, 8057
11534, 8247, 8179, 5017
11535, 8519, 8130, 5049
11536, 8188, 8131, 5094
11537, 8131, 5093, 8078
11538, 8238, 8132, 8226
11539, 8132, 5095, 8086
11540, 8180, 5110, 7997
11541, 8315, 7765, 5109
11542, 8241, 8184, 8134
11543, 8134, 4851, 8052
11544, 8135, 5495, 7332
11545, 8135, 7332, 5486
11546, 8136, 5166, 7813
11547, 8246, 8136, 5182
11548, 8204, 8137, 5167
11549, 8545, 5150, 8056
11550, 8210, 5042, 6946
11551, 8138, 5043, 8096
11552, 8202, 8139, 5213
11553, 8193, 5212, 7605
11554, 8248, 8140, 5229
11555, 8140, 8093, 5228
11556, 8163, 8141, 5033
11557, 8141, 5064, 8011
11558, 8245, 8142, 8191
11559, 8142, 5249, 8060
11560, 8285, 8143, 8197
11561, 8143, 4772, 8089
11562, 8190, 7624, 5437
11563, 8144, 5438, 8050
11564, 8200, 5457, 7939
11565, 8145, 5458, 8091
11566, 8146, 5154, 8085
11567, 8169, 8146, 5124
11568, 8147, 5015, 8066
11569, 8147, 5014, 8043
11570, 8148, 7957, 4852
11571, 8148, 7963, 7965
11572, 8160, 8149, 7958
11573, 8149, 5038, 8084
11574, 8178, 8150, 5027
11575, 8150, 4996, 8072
11576, 8272, 8151, 8059
11577, 8151, 4753, 7980
11578, 8157, 8152, 5196
11579, 8157, 8156, 8152
11580, 8155, 8153, 7950
11581, 8153, 4755, 8037
11582, 8199, 8154, 5044
11583, 8198, 8154, 5043
11584, 8155, 7950, 4724
11585, 8197, 8155, 4754
11586, 8233, 8156, 5197
11587, 8156, 5182, 7953
11588, 8297, 5197, 8157
11589, 8157, 5197, 8156
11590, 8235, 8158, 4987
11591, 8158, 8024, 8108
11592, 8237, 8159, 4752
11593, 8276, 8159, 8237
11594, 8160, 7958, 5069
11595, 8160, 7909, 5038
11596, 8217, 8161, 5046
11597, 8161, 5015, 8147
11598, 8431, 8413, 8402
11599, 8162, 5033, 8141
11600, 8163, 5064, 8141
11601, 8347, 8283, 8163
11602, 8256, 4769, 8237
11603, 8164, 4768, 8106
11604, 8263, 8165, 4909
11605, 8366, 8165, 8310
11606, 8229, 8166, 4867
11607, 8184, 8166, 4868
11608, 8227, 8167, 5120
11609, 8228, 8167, 5121
11610, 8315, 8168, 5078
11611, 8168, 5079, 8103
11612, 8169, 5124, 8104
11613, 8262, 8169, 5123
11614, 8377, 8170, 4813
11615, 8230, 4798, 7775
11616, 8171, 4932, 7171
11617, 8225, 8171, 4963
11618, 8239, 8172, 5245
11619, 8240, 8172, 5246
11620, 8543, 8173, 4955
11621, 8173, 8032, 8110
11622, 8260, 8174, 4787
11623, 8646, 8174, 4802
11624, 8175, 4788, 7882
11625, 8189, 8175, 4772
11626, 8259, 8176, 5186
11627, 8647, 8176, 5201
11628, 8177, 5187, 7887
11629, 8286, 8177, 5171
11630, 8278, 4997, 8231
11631, 8178, 4996, 8150
11632, 8235, 5018, 8158
11633, 8247, 8196, 8179
11634, 8180, 7997, 5079
11635, 8180, 5079, 8168
11636, 8181, 8070, 4852
11637, 8181, 4852, 8092
11638, 8182, 4972, 8128
11639, 8182, 4973, 7861
11640, 8183, 5095, 8132
11641, 8183, 5094, 7930
11642, 8184, 4868, 8125
11643, 8184, 8125, 4851
11644, 8185, 8057, 5261
11645, 8185, 7595, 5262
11646, 8218, 8186, 5183
11647, 8186, 5167, 8090
11648, 8187, 4752, 7892
11649, 8187, 7892, 4751
11650, 8350, 5094, 8238
11651, 8288, 8243, 8188
11652, 8189, 4772, 8143
11653, 8234, 8189, 4771
11654, 8190, 5437, 7610
11655, 8190, 5438, 8144
11656, 8244, 5233, 7901
11657, 8270, 5232, 8191
11658, 8220, 8192, 5214
11659, 8192, 5213, 8093
11660, 8193, 7605, 5227
11661, 8193, 7944, 8139
11662, 8258, 8194, 5026
11663, 8194, 5027, 8150
11664, 8265, 8195, 5089
11665, 8355, 8195, 8312
11666, 8196, 5048, 8101
11667, 8196, 8130, 8179
11668, 8285, 8242, 8143
11669, 8197, 4755, 8153
11670, 8261, 5043, 8210
11671, 8249, 5074, 6885
11672, 8250, 5044, 7940
11673, 8201, 8035, 8096
11674, 8200, 7939, 7881
11675, 8200, 7881, 5458
11676, 8201, 8096, 5043
11677, 8201, 8154, 8199
11678, 8255, 8202, 5213
11679, 8367, 8202, 8255
11680, 8294, 8203, 8251
11681, 8203, 4850, 8122
11682, 8295, 8204, 8254
11683, 8204, 5150, 8137
11684, 8221, 8205, 4903
11685, 8205, 4862, 8073
11686, 8252, 4784, 7969
11687, 8445, 8253, 4785
11688, 8216, 8207, 8214
11689, 8207, 5004, 8069
11690, 8208, 5494, 7561
11691, 8208, 7561, 7499
11692, 8215, 8209, 5078
11693, 8332, 8209, 8215
11694, 8261, 8210, 6799
11695, 8210, 5043, 8138
11696, 8211, 7401, 7595
11697, 8211, 7595, 5261
11698, 8332, 8217, 8212
11699, 8212, 5046, 7871
11700, 8213, 5065, 7769
11701, 8213, 7971, 5034
11702, 8282, 8214, 4972
11703, 8216, 8214, 5003
11704, 8332, 8215, 5047
11705, 8215, 5078, 8168
11706, 8338, 8271, 8216
11707, 8216, 5004, 8207
11708, 8217, 5046, 8212
11709, 8291, 8217, 5047
11710, 8359, 8218, 5183
11711, 8218, 5167, 8186
11712, 8510, 8219, 4902
11713, 8219, 4903, 8205
11714, 8352, 8275, 8220
11715, 8275, 8255, 8220
11716, 8336, 4863, 8273
11717, 8221, 4862, 8205
11718, 8222, 4988, 7400
11719, 8222, 4987, 8158
11720, 8344, 8266, 8277
11721, 8223, 4753, 8159
11722, 8224, 5196, 7922
11723, 8264, 8224, 5211
11724, 8274, 4963, 7753
11725, 8614, 8225, 4964
11726, 8238, 8226, 5063
11727, 8226, 5064, 8163
11728, 8227, 5120, 7967
11729, 8345, 8227, 5150
11730, 8316, 8228, 5121
11731, 8343, 5090, 8311
11732, 8299, 8229, 4867
11733, 8346, 4908, 8309
11734, 8230, 7775, 4797
11735, 8333, 8269, 8230
11736, 8339, 8279, 8231
11737, 8231, 4996, 8178
11738, 8308, 8232, 5092
11739, 8232, 5123, 8169
11740, 8301, 8233, 8296
11741, 8233, 5182, 8156
11742, 8361, 4771, 8328
11743, 8234, 4787, 8111
11744, 8320, 8235, 4987
11745, 8320, 8317, 8235
11746, 8280, 8236, 5170
11747, 8236, 5186, 8112
11748, 8237, 4752, 8187
11749, 8276, 8237, 4769
11750, 8350, 8238, 5063
11751, 8238, 5094, 8183
11752, 8239, 5245, 8129
11753, 8356, 5262, 7730
11754, 8318, 8240, 5246
11755, 8492, 5230, 8452
11756, 8268, 8134, 4850
11757, 8241, 4867, 8166
11758, 8285, 8266, 8242
11759, 8242, 4771, 8189
11760, 8243, 5093, 8188
11761, 8441, 8349, 5062
11762, 8244, 7901, 5218
11763, 8334, 8270, 8244
11764, 8267, 8245, 5232
11765, 8290, 8245, 8267
11766, 8301, 5182, 8233
11767, 8246, 5183, 8186
11768, 8376, 8314, 5016
11769, 8247, 5048, 8196
11770, 8452, 8302, 5229
11771, 8248, 5214, 8192
11772, 8249, 6885, 5075
11773, 8249, 8049, 8198
11774, 8250, 7940, 8031
11775, 8250, 8031, 5013
11776, 8294, 8251, 4833
11777, 8293, 4834, 7900
11778, 8325, 8252, 4799
11779, 8325, 8313, 8252
11780, 8253, 4769, 8164
11781, 8253, 8106, 8206
11782, 8254, 5167, 8218
11783, 8295, 8254, 5168
11784, 8296, 8255, 5198
11785, 8255, 5213, 8220
11786, 8256, 8187, 8097
11787, 8256, 8164, 4769
11788, 8304, 8257, 8291
11789, 8257, 5015, 8161
11790, 8298, 8258, 5026
11791, 8436, 8258, 8342
11792, 8259, 5201, 8176
11793, 8306, 8259, 5186
11794, 8360, 8305, 4786
11795, 8260, 4802, 8174
11796, 8261, 6799, 5074
11797, 8261, 8198, 5043
11798, 8300, 8262, 5123
11799, 8307, 8262, 5153
11800, 8309, 8263, 4909
11801, 8310, 8263, 4940
11802, 8264, 5211, 7485
11803, 8297, 8264, 5212
11804, 8311, 8265, 5089
11805, 8312, 8265, 5058
11806, 8266, 4771, 8242
11807, 8277, 8266, 4754
11808, 8290, 8267, 5248
11809, 8329, 8267, 5232
11810, 8351, 4850, 8203
11811, 8268, 4867, 8241
11812, 8474, 8269, 4812
11813, 8269, 8170, 8230
11814, 8393, 8270, 5217
11815, 8270, 8191, 8244
11816, 8271, 5035, 7942
11817, 8271, 5004, 8216
11818, 8272, 7856, 4752
11819, 8272, 4752, 8159
11820, 8395, 8273, 4863
11821, 8273, 4862, 8221
11822, 8274, 7753, 7876
11823, 8274, 7876, 4964
11824, 8371, 8363, 5198
11825, 8275, 5198, 8255
11826, 8544, 4769, 8445
11827, 8276, 8223, 8159
11828, 8277, 4754, 8083
11829, 8277, 4753, 8223
11830, 8340, 8178, 5027
11831, 8478, 8278, 5028
11832, 8381, 8279, 8339
11833, 8279, 4965, 8113
11834, 8280, 5186, 8236
11835, 8453, 8280, 5170
11836, 8337, 8281, 5151
11837, 8281, 5121, 8167
11838, 8282, 5003, 8214
11839, 8448, 8403, 8282
11840, 8347, 8163, 5033
11841, 8485, 5032, 8442
11842, 8287, 5093, 8243
11843, 8284, 5092, 8232
11844, 8285, 8197, 4754
11845, 8285, 4754, 8266
11846, 8425, 8330, 8374
11847, 8286, 5170, 8236
11848, 8349, 8287, 8243
11849, 8287, 5092, 8284
11850, 8323, 8288, 5063
11851, 8288, 5062, 8243
11852, 8550, 5047, 8215
11853, 8289, 5048, 8247
11854, 8326, 8290, 5248
11855, 8290, 5249, 8142
11856, 8376, 5047, 8289
11857, 8304, 8291, 5016
11858, 8331, 8292, 5263
11859, 8292, 5246, 8172
11860, 8293, 7900, 4819
11861, 8390, 8324, 8293
11862, 8319, 8294, 4833
11863, 8351, 8294, 8319
11864, 8373, 8295, 5168
11865, 8418, 5151, 8345
11866, 8367, 8296, 5197
11867, 8363, 8296, 5198
11868, 8367, 8297, 5212
11869, 8297, 8157, 8224
11870, 8342, 8298, 5057
11871, 8341, 5026, 8044
11872, 8299, 4908, 8229
11873, 8354, 8299, 4867
11874, 8300, 5153, 8262
11875, 8353, 8300, 5123
11876, 8363, 8301, 8296
11877, 8301, 5183, 8246
11878, 8452, 8408, 8302
11879, 8302, 5214, 8248
11880, 8368, 8303, 5184
11881, 8303, 5168, 8254
11882, 8375, 8304, 5016
11883, 8375, 8358, 8304
11884, 8361, 8234, 4771
11885, 8444, 8360, 4786
11886, 8306, 5186, 8280
11887, 8528, 8472, 5200
11888, 8330, 8307, 5153
11889, 8307, 5154, 8146
11890, 8308, 5123, 8232
11891, 8458, 8417, 8308
11892, 8346, 4909, 8099
11893, 8406, 8309, 4908
11894, 8372, 8310, 4940
11895, 8366, 8310, 4941
11896, 8343, 5089, 8102
11897, 8398, 8311, 5090
11898, 8436, 8342, 5058
11899, 8355, 8312, 5057
11900, 8327, 8313, 4800
11901, 8313, 4785, 8206
11902, 8322, 8314, 5017
11903, 8376, 5016, 8291
11904, 8315, 5078, 7765
11905, 8315, 8133, 8180
11906, 8407, 8369, 5122
11907, 8316, 5090, 8228
11908, 8322, 8317, 8320
11909, 8317, 5017, 8179
11910, 8410, 8370, 5247
11911, 8318, 5230, 8240
11912, 8438, 8319, 8388
11913, 8351, 8319, 4849
11914, 8587, 4987, 8560
11915, 8322, 8320, 4986
11916, 8386, 8321, 8351
11917, 8559, 8268, 8321
11918, 8412, 4985, 8375
11919, 8322, 5017, 8317
11920, 8485, 5063, 8283
11921, 8442, 8389, 8323
11922, 8439, 8324, 4818
11923, 8324, 8251, 8293
11924, 8500, 4799, 8459
11925, 8325, 4800, 8313
11926, 8495, 8456, 5266
11927, 8326, 5249, 8290
11928, 8444, 4786, 8391
11929, 8327, 4785, 8313
11930, 8328, 4771, 8266
11931, 8486, 8415, 4770
11932, 8393, 8329, 5232
11933, 8447, 5231, 8329
11934, 8394, 8330, 5153
11935, 8425, 8374, 5171
11936, 8460, 8419, 8331
11937, 8331, 5246, 8292
11938, 8332, 7956, 8209
11939, 8332, 5047, 8217
11940, 8380, 8333, 4797
11941, 8333, 4812, 8269
11942, 8334, 5218, 7702
11943, 8334, 5217, 8270
11944, 8335, 4845, 8115
11945, 8335, 4862, 8273
11946, 8396, 8221, 4903
11947, 8556, 8336, 4904
11948, 8461, 8337, 5151
11949, 8423, 8369, 8337
11950, 8400, 8216, 5003
11951, 8540, 5034, 7971
11952, 8383, 8339, 4997
11953, 8381, 8339, 4966
11954, 8469, 8387, 8382
11955, 8340, 5028, 8278
11956, 8341, 8044, 5025
11957, 8434, 8384, 8341
11958, 8342, 8258, 8298
11959, 8342, 5057, 8312
11960, 8343, 8102, 8228
11961, 8343, 8228, 5090
11962, 8344, 8277, 8223
11963, 8344, 8223, 4770
11964, 8418, 5150, 8204
11965, 8345, 5151, 8281
11966, 8346, 8099, 8229
11967, 8346, 8229, 4908
11968, 8397, 8347, 5033
11969, 8347, 5032, 8283
11970, 8639, 8413, 8431
11971, 8348, 5003, 8282
11972, 8349, 8243, 5062
11973, 8538, 5061, 8498
11974, 8350, 5063, 8288
11975, 8350, 8188, 5094
11976, 8351, 8203, 8294
11977, 8386, 8351, 4849
11978, 8414, 5214, 8364
11979, 8352, 5199, 8275
11980, 8353, 5123, 8308
11981, 8401, 8353, 5122
11982, 8559, 8428, 8354
11983, 8513, 8405, 4866
11984, 8355, 5057, 7568
11985, 8355, 7568, 5088
11986, 8356, 8239, 5262
11987, 8356, 7730, 5263
11988, 8382, 8357, 5059
11989, 8357, 5058, 8265
11990, 8404, 8358, 4984
11991, 8358, 5015, 8304
11992, 8399, 5183, 8363
11993, 8359, 5184, 8303
11994, 8525, 8360, 4801
11995, 8360, 8260, 8305
11996, 8361, 8305, 4787
11997, 8361, 4787, 8234
11998, 8526, 8362, 5200
11999, 8362, 8259, 8306
12000, 8450, 8371, 5199
12001, 8363, 5183, 8301
12002, 8364, 5214, 8302
12003, 8429, 8364, 5215
12004, 8385, 8365, 4939
12005, 8365, 4940, 8263
12006, 8736, 4941, 7964
12007, 8366, 4910, 8165
12008, 8367, 5197, 8297
12009, 8367, 5212, 8202
12010, 8449, 8421, 5169
12011, 8368, 5168, 8303
12012, 8369, 5121, 8337
12013, 8417, 8407, 5122
12014, 8370, 5246, 8331
12015, 8410, 5247, 8392
12016, 8371, 8275, 5199
12017, 8450, 8399, 8371
12018, 8451, 8448, 4972
12019, 8372, 4941, 8310
12020, 8466, 8373, 8409
12021, 8373, 5151, 8295
12022, 8374, 5170, 8286
12023, 8374, 8286, 5171
12024, 8412, 8375, 5016
12025, 8515, 8375, 4985
12026, 8376, 8291, 5047
12027, 8376, 8289, 8314
12028, 8379, 8377, 4813
12029, 8379, 8378, 8377
12030, 8459, 8378, 4814
12031, 8378, 4799, 8105
12032, 8531, 8379, 8475
12033, 8379, 4814, 8378
12034, 8380, 4797, 6931
12035, 8462, 6802, 4811
12036, 8463, 8381, 4966
12037, 8381, 4965, 8279
12038, 8469, 8382, 5059
12039, 8436, 8382, 8387
12040, 8479, 8437, 4998
12041, 8383, 4966, 8339
12042, 8529, 8384, 5056
12043, 8384, 8298, 8341
12044, 8440, 8411, 8385
12045, 8385, 4940, 8365
12046, 8424, 8386, 4849
12047, 8428, 8386, 8424
12048, 8387, 8340, 5027
12049, 8436, 8387, 5027
12050, 8439, 8388, 4833
12051, 8481, 4832, 8388
12052, 8389, 5062, 8323
12053, 8484, 8389, 5031
12054, 8390, 4819, 7701
12055, 8390, 4818, 8324
12056, 8486, 8391, 4786
12057, 8391, 4785, 8327
12058, 8410, 8392, 5231
12059, 8482, 5247, 8457
12060, 8393, 5232, 8270
12061, 8489, 8447, 8393
12062, 8394, 5170, 8374
12063, 8446, 8394, 5153
12064, 8430, 8395, 4863
12065, 8443, 8395, 4846
12066, 8433, 8396, 4903
12067, 8396, 4904, 8336
12068, 8639, 5033, 8413
12069, 8563, 8507, 8397
12070, 8621, 5090, 8523
12071, 8398, 5059, 8357
12072, 8399, 5184, 8359
12073, 8399, 8359, 5183
12074, 8402, 5003, 8348
12075, 8400, 5034, 8338
12076, 8423, 8401, 5122
12077, 8488, 5152, 8446
12078, 8413, 5034, 8402
12079, 8402, 5034, 8400
12080, 8448, 8282, 4972
12081, 8548, 4971, 8501
12082, 8404, 4984, 7981
12083, 8404, 7990, 8066
12084, 8541, 8405, 4907
12085, 8405, 8299, 8354
12086, 8603, 4908, 8541
12087, 8406, 4939, 8365
12088, 8523, 8407, 5091
12089, 8407, 8316, 8369
12090, 8427, 8408, 5230
12091, 8408, 5215, 8364
12092, 8466, 8409, 5169
12093, 8409, 5168, 8368
12094, 8520, 8410, 5231
12095, 8410, 8318, 8370
12096, 8451, 4971, 8448
12097, 8411, 4940, 8385
12098, 8412, 5016, 8314
12099, 8465, 8412, 8322
12100, 8413, 5033, 8162
12101, 8413, 8162, 5034
12102, 8414, 5199, 8352
12103, 8414, 8352, 5214
12104, 8415, 8328, 4770
12105, 8415, 4786, 8305
12106, 8457, 5247, 8435
12107, 8509, 8456, 5265
12108, 8417, 5091, 8407
12109, 8417, 5122, 8353
12110, 8418, 8204, 8295
12111, 8418, 8295, 5151
12112, 8435, 8419, 5264
12113, 8419, 5247, 8370
12114, 8464, 8420, 5211
12115, 8420, 6745, 5226
12116, 8449, 5169, 8409
12117, 8421, 5185, 8306
12118, 8426, 8422, 4941
12119, 8422, 4972, 8182
12120, 8423, 5122, 8369
12121, 8461, 8423, 8337
12122, 8428, 8424, 4866
12123, 8470, 8424, 4849
12124, 8504, 5171, 7984
12125, 8425, 5154, 8307
12126, 8426, 4972, 8422
12127, 8426, 4941, 8372
12128, 8506, 8447, 5216
12129, 8427, 5215, 8408
12130, 8428, 4866, 8354
12131, 8559, 8354, 4867
12132, 8505, 5215, 8471
12133, 8577, 5200, 8472
12134, 8575, 8430, 8473
12135, 8430, 4846, 8395
12136, 8431, 8348, 5002
12137, 8639, 8431, 5002
12138, 8474, 4813, 8269
12139, 8633, 8475, 4828
12140, 8476, 8433, 4903
12141, 8562, 8514, 8433
12142, 8480, 5025, 7126
12143, 8434, 5056, 8384
12144, 8435, 5247, 8419
12145, 8468, 5264, 7720
12146, 8436, 5058, 8382
12147, 8436, 5027, 8258
12148, 8478, 8437, 4997
12149, 8659, 8479, 4998
12150, 8477, 8438, 4832
12151, 8574, 4848, 8470
12152, 8439, 4833, 8324
12153, 8552, 8481, 8439
12154, 8501, 8440, 4970
12155, 8440, 4971, 8411
12156, 8441, 5061, 8349
12157, 8441, 5062, 8389
12158, 8502, 8442, 5032
12159, 8442, 5031, 8389
12160, 8497, 8443, 4846
12161, 8443, 4845, 8335
12162, 8487, 8327, 4800
12163, 8444, 4801, 8360
12164, 8445, 4769, 8253
12165, 8445, 4785, 8391
12166, 8488, 5153, 8300
12167, 8496, 5152, 8466
12168, 8506, 5216, 8471
12169, 8447, 8329, 8393
12170, 8451, 4972, 8426
12171, 8448, 4971, 8403
12172, 8490, 8368, 5184
12173, 8449, 5185, 8421
12174, 8577, 8472, 5199
12175, 8450, 5184, 8399
12176, 8451, 8372, 8411
12177, 8451, 8411, 4971
12178, 8492, 5229, 8107
12179, 8452, 5230, 8408
12180, 8467, 5170, 8394
12181, 8453, 5169, 8421
12182, 8603, 8582, 8454
12183, 8454, 4939, 8406
12184, 8621, 8579, 8455
12185, 8455, 5059, 8398
12186, 8495, 5266, 8100
12187, 8456, 8326, 8416
12188, 8457, 8416, 5248
12189, 8482, 5248, 8267
12190, 8498, 8458, 5092
12191, 8458, 5091, 8417
12192, 8624, 8585, 8500
12193, 8459, 4799, 8378
12194, 8460, 8331, 5263
12195, 8460, 7721, 5264
12196, 8503, 5151, 8373
12197, 8461, 5152, 8423
12198, 8462, 7434, 4812
12199, 8462, 4812, 8380
12200, 8508, 8463, 4966
12201, 8589, 8562, 4934
12202, 8464, 5210, 8420
12203, 8464, 5211, 8224
12204, 8499, 8465, 4986
12205, 8465, 4985, 8412
12206, 8496, 8466, 5169
12207, 8503, 5152, 8461
12208, 8467, 8394, 8446
12209, 8467, 5169, 8453
12210, 8468, 7720, 5265
12211, 8468, 5265, 8416
12212, 8605, 5059, 8491
12213, 8469, 5028, 8387
12214, 8574, 4849, 8319
12215, 8689, 8676, 4865
12216, 8619, 5216, 8583
12217, 8572, 8505, 8471
12218, 8528, 5200, 8362
12219, 8601, 8450, 8472
12220, 8556, 8473, 4863
12221, 8575, 8473, 4864
12222, 8551, 4812, 7295
12223, 8594, 8474, 8551
12224, 8531, 8475, 4829
12225, 8475, 8379, 8432
12226, 8476, 4934, 8433
12227, 8510, 4903, 8219
12228, 8477, 4848, 8438
12229, 8578, 8477, 4832
12230, 8478, 4997, 8278
12231, 8620, 8478, 5028
12232, 8546, 8479, 4967
12233, 8479, 8383, 8437
12234, 8480, 7126, 7006
12235, 8480, 7006, 5056
12236, 8622, 8481, 4817
12237, 8481, 8388, 8439
12238, 8482, 8267, 8392
12239, 8482, 8392, 5247
12240, 8593, 4939, 8494
12241, 8483, 4970, 8440
12242, 8590, 8484, 5031
12243, 8706, 8484, 5030
12244, 8485, 8323, 5063
12245, 8485, 8283, 5032
12246, 8486, 4786, 8415
12247, 8544, 8486, 4770
12248, 8573, 8487, 4800
12249, 8487, 4801, 8444
12250, 8488, 8300, 8401
12251, 8488, 8401, 5152
12252, 8583, 8489, 5217
12253, 8489, 5216, 8447
12254, 8601, 8490, 5184
12255, 8490, 5185, 8449
12256, 8610, 8491, 5060
12257, 8610, 8605, 8491
12258, 8492, 8107, 8240
12259, 8492, 8240, 5230
12260, 8581, 4814, 8531
12261, 8585, 8573, 4800
12262, 8494, 4939, 8454
12263, 8608, 8494, 4938
12264, 8495, 8100, 5249
12265, 8495, 8326, 8456
12266, 8496, 5169, 8467
12267, 8496, 8446, 5152
12268, 8604, 8497, 4846
12269, 8635, 8616, 4845
12270, 8538, 8498, 5092
12271, 8607, 8579, 8600
12272, 8584, 8499, 4986
12273, 8661, 8547, 4954
12274, 8500, 4800, 8325
12275, 8500, 8325, 4799
12276, 8564, 8548, 8501
12277, 8501, 4971, 8440
12278, 8565, 8502, 5032
12279, 8625, 8502, 8565
12280, 8503, 8461, 5151
12281, 8503, 8373, 8466
12282, 8504, 7984, 8002
12283, 8504, 8002, 5154
12284, 8505, 5200, 8429
12285, 8505, 8429, 5215
12286, 8714, 5230, 8520
12287, 8506, 5231, 8447
12288, 8565, 8507, 8563
12289, 8507, 5032, 8347
12290, 8588, 4966, 8546
12291, 8589, 8508, 4935
12292, 8509, 5265, 7635
12293, 8532, 7628, 5307
12294, 8612, 8510, 4902
12295, 8612, 8567, 8510
12296, 8511, 4925, 7719
12297, 8511, 7719, 4884
12298, 8675, 4906, 8655
12299, 8512, 4866, 8424
12300, 8513, 4907, 8405
12301, 8513, 4866, 8512
12302, 8566, 8514, 8562
12303, 8514, 4904, 8396
12304, 8515, 4985, 8028
12305, 8515, 8028, 4984
12306, 8626, 8569, 8613
12307, 8516, 4965, 8463
12308, 8615, 8543, 4955
12309, 8517, 4956, 7727
12310, 8518, 4683, 6602
12311, 8518, 6750, 6634
12312, 8519, 5049, 7695
12313, 8519, 7779, 8025
12314, 8714, 5231, 8506
12315, 8520, 5230, 8318
12316, 8521, 5363, 5594
12317, 8521, 5364, 7103
12318, 8522, 5009, 7983
12319, 8522, 4978, 7436
12320, 8621, 5091, 8579
12321, 8523, 5090, 8316
12322, 8524, 5311, 6532
12323, 8524, 6532, 5270
12324, 8618, 8525, 4801
12325, 8525, 4802, 8260
12326, 8526, 5200, 8505
12327, 8526, 5201, 8259
12328, 8527, 7201, 5396
12329, 8527, 6928, 7232
12330, 8528, 8362, 5185
12331, 8528, 5185, 8490
12332, 8529, 5056, 7342
12333, 8529, 7568, 5057
12334, 8530, 4766, 7270
12335, 8530, 7557, 4767
12336, 8581, 8531, 4829
12337, 8531, 4814, 8379
12338, 8580, 8532, 5307
12339, 8532, 5266, 8509
12340, 8539, 8533, 4891
12341, 8533, 4890, 7626
12342, 8661, 8534, 4985
12343, 8534, 4954, 7928
12344, 8613, 8569, 8535
12345, 8535, 4964, 8008
12346, 8616, 8536, 4845
12347, 8536, 4844, 8005
12348, 8537, 7216, 6816
12349, 8537, 6816, 5332
12350, 8538, 5092, 8287
12351, 8538, 8349, 5061
12352, 8539, 4891, 7899
12353, 8539, 4884, 7636
12354, 8540, 7971, 7872
12355, 8540, 5035, 8338
12356, 8674, 8603, 4907
12357, 8541, 4908, 8299
12358, 8542, 5431, 7206
12359, 8542, 7206, 5422
12360, 8615, 8598, 8517
12361, 8543, 4924, 8032
12362, 8544, 4770, 8276
12363, 8544, 8276, 4769
12364, 8545, 8056, 5149
12365, 8545, 7941, 8137
12366, 8588, 8546, 4967
12367, 8546, 4966, 8383
12368, 8547, 8173, 4954
12369, 8661, 4954, 8534
12370, 8548, 5002, 8403
12371, 8548, 8403, 4971
12372, 8549, 5438, 7801
12373, 8549, 7801, 8082
12374, 8550, 8215, 8103
12375, 8550, 8103, 5048
12376, 8551, 7295, 4827
12377, 8594, 8551, 4827
12378, 8596, 8552, 4818
12379, 8552, 4817, 8481
12380, 8553, 4656, 6174
12381, 8553, 6278, 6607
12382, 8554, 5356, 6173
12383, 8554, 6276, 6608
12384, 8555, 4714, 6172
12385, 8555, 6277, 6609
12386, 8556, 4863, 8336
12387, 8599, 8556, 4904
12388, 8660, 8597, 4844
12389, 8557, 4827, 7173
12390, 8597, 8595, 8557
12391, 8558, 4843, 7751
12392, 8559, 4867, 8268
12393, 8559, 8321, 8428
12394, 8598, 8584, 8587
12395, 8560, 4987, 7591
12396, 8561, 4810, 6164
12397, 8561, 6290, 6446
12398, 8589, 4934, 8516
12399, 8566, 8562, 4935
12400, 8632, 8548, 8564
12401, 8565, 8563, 5001
12402, 8564, 8501, 4970
12403, 8632, 5001, 8563
12404, 8565, 5032, 8507
12405, 8694, 8625, 5001
12406, 8683, 8656, 4936
12407, 8566, 4904, 8514
12408, 8642, 8626, 8567
12409, 8567, 4934, 8476
12410, 8592, 8517, 4925
12411, 8568, 4924, 8543
12412, 8626, 8613, 8516
12413, 8642, 8614, 8569
12414, 8618, 8570, 8525
12415, 8617, 4817, 8596
12416, 8616, 8571, 8536
12417, 8660, 8595, 8597
12418, 8719, 8471, 5216
12419, 8572, 5201, 8526
12420, 8585, 4800, 8500
12421, 8636, 8618, 4801
12422, 8574, 8319, 8438
12423, 8574, 8438, 4848
12424, 8631, 8575, 4864
12425, 8644, 4847, 8628
12426, 8609, 8576, 5029
12427, 8576, 4998, 8437
12428, 8577, 5199, 8414
12429, 8577, 8429, 5200
12430, 8622, 4832, 8481
12431, 8658, 8628, 4847
12432, 8600, 8579, 5091
12433, 8579, 5060, 8491
12434, 8580, 5307, 7615
12435, 8580, 7615, 7805
12436, 8643, 4829, 8629
12437, 8643, 8629, 4830
12438, 8674, 8582, 8603
12439, 8582, 4938, 8494
12440, 8691, 5217, 7897
12441, 8691, 8647, 8583
12442, 8584, 4955, 8547
12443, 8587, 8584, 4986
12444, 8624, 8500, 8459
12445, 8606, 8585, 4815
12446, 8651, 8586, 5000
12447, 8586, 5031, 8502
12448, 8587, 4986, 8320
12449, 8587, 8320, 4987
12450, 8638, 8588, 4967
12451, 8638, 8627, 8588
12452, 8589, 8516, 8463
12453, 8589, 8463, 8508
12454, 8590, 5030, 8484
12455, 8590, 5031, 8586
12456, 8591, 7805, 5267
12457, 8591, 8077, 8100
12458, 8592, 8511, 8042
12459, 8592, 4924, 8568
12460, 8593, 4970, 8483
12461, 8593, 8483, 4939
12462, 8595, 4827, 8557
12463, 8594, 4828, 8432
12464, 8597, 8557, 4843
12465, 8595, 4828, 8594
12466, 8690, 4818, 7896
12467, 8690, 8646, 8596
12468, 8597, 8558, 4844
12469, 8660, 4844, 8571
12470, 8598, 4956, 8517
12471, 8598, 4955, 8584
12472, 8599, 4904, 8566
12473, 8671, 8630, 4905
12474, 8600, 5091, 8458
12475, 8607, 8600, 8498
12476, 8601, 5184, 8450
12477, 8601, 8472, 8528
12478, 8602, 5056, 7006
12479, 8602, 7176, 7249
12480, 8603, 8454, 4908
12481, 8603, 8541, 4907
12482, 8628, 8604, 4846
12483, 8629, 8604, 4830
12484, 8605, 5028, 8469
12485, 8605, 8469, 5059
12486, 8709, 4815, 8637
12487, 8636, 8606, 4816
12488, 8645, 8607, 5061
12489, 8607, 5060, 8579
12490, 8653, 8608, 4938
12491, 8693, 8608, 4969
12492, 8666, 5030, 8662
12493, 8609, 4998, 8576
12494, 8654, 5060, 8645
12495, 8641, 5029, 8620
12496, 8637, 8611, 4830
12497, 8611, 4815, 8493
12498, 8652, 4902, 7868
12499, 8612, 4933, 8567
12500, 8613, 4965, 8516
12501, 8626, 8516, 4934
12502, 8614, 4964, 8569
12503, 8614, 4933, 8121
12504, 8615, 8568, 8543
12505, 8615, 4955, 8598
12506, 8635, 4845, 8497
12507, 8635, 8633, 8616
12508, 8617, 4802, 8570
12509, 8617, 8570, 4817
12510, 8636, 4801, 8487
12511, 8636, 8634, 8618
12512, 8619, 5201, 8572
12513, 8719, 8619, 8572
12514, 8641, 5028, 8605
12515, 8620, 5029, 8576
12516, 8621, 8455, 5090
12517, 8621, 8523, 5091
12518, 8670, 4817, 8634
12519, 8670, 8648, 8622
12520, 8657, 8623, 4847
12521, 8623, 8477, 8578
12522, 8624, 8493, 4815
12523, 8624, 4815, 8585
12524, 8625, 8565, 5001
12525, 8625, 5000, 8586
12526, 8626, 4934, 8567
12527, 8642, 8567, 4933
12528, 8656, 8627, 4936
12529, 8627, 4935, 8508
12530, 8644, 4846, 8430
12531, 8658, 4847, 8623
12532, 8643, 4830, 8611
12533, 8635, 8629, 4829
12534, 8630, 4864, 8473
12535, 8630, 8473, 8556
12536, 8676, 8657, 8631
12537, 8631, 4847, 8575
12538, 8639, 8632, 8563
12539, 8632, 5002, 8548
12540, 8633, 4829, 8475
12541, 8660, 8633, 4828
12542, 8670, 8634, 4816
12543, 8634, 4817, 8570
12544, 8635, 8497, 8629
12545, 8635, 4829, 8633
12546, 8636, 8573, 8606
12547, 8636, 4816, 8634
12548, 8665, 8648, 4816
12549, 8637, 4815, 8611
12550, 8685, 4967, 8678
12551, 8638, 4936, 8627
12552, 8639, 5002, 8632
12553, 8639, 8397, 5033
12554, 8684, 4968, 8678
12555, 8640, 4998, 8609
12556, 8641, 8605, 8610
12557, 8641, 8610, 5029
12558, 8642, 4933, 8614
12559, 8642, 8569, 8626
12560, 8643, 8611, 8581
12561, 8643, 8581, 4829
12562, 8644, 8430, 8575
12563, 8644, 8575, 4847
12564, 8706, 8664, 5061
12565, 8664, 8654, 8645
12566, 8667, 8646, 4803
12567, 8646, 4802, 8617
12568, 8668, 8647, 5202
12569, 8647, 5201, 8619
12570, 8709, 8665, 4816
12571, 8648, 4831, 8578
12572, 8712, 4831, 8665
12573, 8649, 4830, 8604
12574, 8671, 4864, 8630
12575, 8676, 4848, 8657
12576, 8672, 8651, 5000
12577, 8662, 8651, 4999
12578, 8652, 7868, 8088
12579, 8652, 8088, 4933
12580, 8653, 4969, 8608
12581, 8673, 8653, 4938
12582, 8654, 5029, 8610
12583, 8654, 8610, 5060
12584, 8682, 8674, 8655
12585, 8655, 4907, 8513
12586, 8683, 8677, 8656
12587, 8656, 8566, 4935
12588, 8669, 8657, 4848
12589, 8657, 4847, 8631
12590, 8658, 8623, 4831
12591, 8658, 4831, 8649
12592, 8659, 4967, 8479
12593, 8659, 4998, 8640
12594, 8660, 8571, 8633
12595, 8660, 4828, 8595
12596, 8661, 4985, 8465
12597, 8661, 8499, 8547
12598, 8666, 4999, 8640
12599, 8662, 5030, 8590
12600, 8663, 8030, 4924
12601, 8663, 4924, 8592
12602, 8664, 8645, 5061
12603, 8680, 8664, 5030
12604, 8712, 8665, 8637
12605, 8665, 4831, 8648
12606, 8666, 8640, 8609
12607, 8680, 8609, 5029
12608, 8667, 4803, 8038
12609, 8667, 8038, 8174
12610, 8668, 5202, 8039
12611, 8668, 8039, 8176
12612, 8669, 4848, 8477
12613, 8669, 8477, 8623
12614, 8670, 4816, 8648
12615, 8670, 8622, 4817
12616, 8698, 8671, 4905
12617, 8686, 4906, 8675
12618, 8687, 8672, 5000
12619, 8688, 8684, 4999
12620, 8679, 8582, 8674
12621, 8718, 8702, 8681
12622, 8674, 4907, 8655
12623, 8682, 8655, 4906
12624, 8675, 8513, 8512
12625, 8686, 8675, 4865
12626, 8676, 8650, 4865
12627, 8689, 4865, 8512
12628, 8677, 4905, 8599
12629, 8677, 8599, 8566
12630, 8702, 8685, 8678
12631, 8678, 4967, 8659
12632, 8679, 8673, 4938
12633, 8679, 4938, 8582
12634, 8680, 5029, 8664
12635, 8680, 5030, 8666
12636, 8692, 8681, 4968
12637, 8681, 8653, 8673
12638, 8697, 8695, 4937
12639, 8697, 8696, 8682
12640, 8738, 4936, 8685
12641, 8683, 4905, 8677
12642, 8684, 8640, 4999
12643, 8688, 4999, 8672
12644, 8738, 8718, 4937
12645, 8685, 4936, 8638
12646, 8686, 4865, 8650
12647, 8698, 8686, 8671
12648, 8694, 8687, 5000
12649, 8700, 8692, 4968
12650, 8700, 8672, 8687
12651, 8688, 4968, 8684
12652, 8689, 8512, 8470
12653, 8689, 4848, 8676
12654, 8690, 7896, 4803
12655, 8690, 4803, 8646
12656, 8691, 7897, 5202
12657, 8691, 5202, 8647
12658, 8700, 4968, 8688
12659, 8692, 4969, 8653
12660, 8701, 8699, 8693
12661, 8693, 4970, 8593
12662, 8694, 5000, 8625
12663, 8699, 5001, 8564
12664, 8697, 4937, 8696
12665, 8703, 8697, 8698
12666, 8696, 4937, 8673
12667, 8696, 8673, 8679
12668, 8697, 8682, 4906
12669, 8698, 8697, 4906
12670, 8703, 8698, 4905
12671, 8698, 4906, 8686
12672, 8699, 4970, 8693
12673, 8701, 8693, 4969
12674, 8700, 8688, 8672
12675, 8700, 8687, 4969
12676, 8701, 4969, 8687
12677, 8701, 8687, 8694
12678, 8702, 4968, 8681
12679, 8718, 8681, 4937
12680, 8703, 4905, 8683
12681, 8703, 8695, 8697
12682, 8704, 5289, 6678
12683, 8704, 6790, 7133
12684, 8705, 4711, 6673
12685, 8705, 6788, 7135
12686, 8706, 5030, 8664
12687, 8706, 5061, 8441
12688, 8707, 5039, 7654
12689, 8707, 7616, 7762
12690, 8708, 5236, 6581
12691, 8708, 6581, 5221
12692, 8709, 4816, 8606
12693, 8709, 8606, 4815
12694, 8710, 4930, 6078
12695, 8710, 6078, 4961
12696, 8711, 7845, 7992
12697, 8711, 7992, 5251
12698, 8712, 8637, 4830
12699, 8712, 8649, 4831
12700, 8713, 4639, 5704
12701, 8713, 4638, 7491
12702, 8714, 8506, 8427
12703, 8714, 8427, 5230
12704, 8715, 4992, 5991
12705, 8715, 5991, 5947
12706, 8716, 6609, 4683
12707, 8716, 4683, 7005
12708, 8717, 4945, 6761
12709, 8717, 6599, 4914
12710, 8738, 4937, 8695
12711, 8718, 8685, 8702
12712, 8719, 8572, 8471
12713, 8719, 5216, 8619
12714, 8720, 7082, 7268
12715, 8720, 4690, 7136
12716, 8721, 7081, 7267
12717, 8721, 5322, 7132
12718, 8722, 7077, 7265
12719, 8722, 5483, 7134
12720, 8723, 6708, 6608
12721, 8723, 5357, 6831
12722, 8724, 4779, 5808
12723, 8724, 5794, 5852
12724, 8725, 4975, 7403
12725, 8725, 7403, 7371
12726, 8726, 4765, 6991
12727, 8726, 6991, 4781
12728, 8727, 7872, 5066
12729, 8727, 7816, 7910
12730, 8728, 7811, 5203
12731, 8728, 7886, 7974
12732, 8729, 7810, 4804
12733, 8729, 7883, 7973
12734, 8730, 5085, 6010
12735, 8730, 6010, 5902
12736, 8731, 7482, 6983
12737, 8731, 6983, 5179
12738, 8732, 5490, 5649
12739, 8732, 5636, 5855
12740, 8733, 5385, 5644
12741, 8733, 5632, 5854
12742, 8734, 4627, 5627
12743, 8734, 5555, 5853
12744, 8735, 5070, 7791
12745, 8735, 6726, 5101
12746, 8736, 7964, 7540
12747, 8736, 7540, 7676
12748, 8737, 6929, 6761
12749, 8737, 4945, 7604
12750, 8738, 8695, 4936
12751, 8738, 8685, 8718
12752, 8739, 6344, 4992
12753, 8739, 6168, 6459
*Nset, nset=SOLID, generate
    1,  8739,     1
*Elset, elset=SOLID, generate
     1,  12753,      1
*Elset, elset=LEFT_CPS3, generate
  4163,  12753,      1
*Elset, elset=RIGHT_CPS4, generate
    1,  4162,     1
** Section: Section-1-SOLID
*Solid Section, elset=SOLID, material=STEEL
,
*End Part
**  
**
** ASSEMBLY
**
*Assembly, name=Assembly
**  
*Instance, name=PART-1-1, part=PART-PERFORATED
*End Instance
**  
*Nset, nset=FIXED, instance=PART-1-1
   7,   8, 421, 422, 423, 424, 425, 426, 427, 428, 429, 430, 431, 432, 433, 434
 435, 436, 437, 438, 439, 440, 441, 442, 443, 444, 445, 446, 447, 448, 449, 450
 451, 452, 453, 454, 455, 456, 457, 458, 459, 460, 461, 462, 463, 464, 465, 466
 467, 468, 469, 470, 471, 472, 473, 474, 475, 476, 477, 478, 479, 480, 481, 482
 483, 484, 485, 486
*Elset, elset=RIGHT_EDGE_ELEMS, instance=PART-1-1
    1,    2,    3,    4,    5,    6,  201,  221,  241,  261,  281,  301,  321,  341,  361,  381
  382,  383,  384,  385,  386,  387,  388,  389,  390,  391,  392,  393,  394,  751,  771,  791
  811,  831,  851,  973,  994, 1015, 1036, 1057, 1078, 1099, 1100, 1101, 1102, 1103, 1104, 1105
 2074, 2094, 2114, 2134, 2154, 2174, 2175, 2176, 2177, 2178, 2179, 2180, 2181, 2182, 2183, 2184
*Elset, elset=_RIGHT_EDGE_S1, internal, instance=PART-1-1
    1,    2,    3,    4,    5,    6,  382,  383,  384,  385,  386,  387,  388,  389,  390,  391
  392,  393,  394, 1100, 1101, 1102, 1103, 1104, 1105, 2175, 2176, 2177, 2178, 2179, 2180, 2181
 2182, 2183, 2184
*Elset, elset=_RIGHT_EDGE_S2, internal, instance=PART-1-1
  201,  221,  241,  261,  281,  301,  321,  341,  361,  381,  751,  771,  791,  811,  831,  851
  973,  994, 1015, 1036, 1057, 1078, 1099, 2074, 2094, 2114, 2134, 2154, 2174
*Surface, type=ELEMENT, name=RIGHT_EDGE
_RIGHT_EDGE_S1, S1
_RIGHT_EDGE_S2, S2
*End Assembly
** 
** MATERIALS
** 
*Material, name=STEEL
*Elastic
210000., 0.3
** 
** BOUNDARY CONDITIONS
** 
** Name: Disp-BC-1 Type: Î»ÒÆ/×ª½Ç
*Boundary
FIXED, 1, 1
FIXED, 2, 2
** ----------------------------------------------------------------
** 
** STEP: LOAD
** 
*Step, name=LOAD, nlgeom=NO
*Static
1., 1., 1e-05, 1.
** 
** LOADS
** 
** Name: SURFFORCE-1   Type: Pressure
*Dsload
RIGHT_EDGE, P, -1.
** 
** OUTPUT REQUESTS
** 
*Restart, write, frequency=0
** 
** FIELD OUTPUT: F-Output-1
** 
*Output, field
*Node Output
RF, U
** 
** FIELD OUTPUT: F-Output-2
** 
*Element Output, directions=YES
S, 
*Output, history, frequency=0
*End Step
