*Heading
** Job name: Cantilever_Beam Model name: Model-1
** Generated by: Abaqus/CAE 2023
*Preprint, echo=NO, model=NO, history=NO, contact=NO
**
** PARTS
**
*Part, name=Cantilever_Beam
*Node
      1,          10.,          10.,         100.
      2,          10.,           5.,         100.
      3,          10.,           0.,         100.
      4,          10.,          10.,          95.
      5,          10.,           5.,          95.
      6,          10.,           0.,          95.
      7,          10.,          10.,          90.
      8,          10.,           5.,          90.
      9,          10.,           0.,          90.
     10,          10.,          10.,          85.
     11,          10.,           5.,          85.
     12,          10.,           0.,          85.
     13,          10.,          10.,          80.
     14,          10.,           5.,          80.
     15,          10.,           0.,          80.
     16,          10.,          10.,          75.
     17,          10.,           5.,          75.
     18,          10.,           0.,          75.
     19,          10.,          10.,          70.
     20,          10.,           5.,          70.
     21,          10.,           0.,          70.
     22,          10.,          10.,          65.
     23,          10.,           5.,          65.
     24,          10.,           0.,          65.
     25,          10.,          10.,          60.
     26,          10.,           5.,          60.
     27,          10.,           0.,          60.
     28,          10.,          10.,          55.
     29,          10.,           5.,          55.
     30,          10.,           0.,          55.
     31,          10.,          10.,          50.
     32,          10.,           5.,          50.
     33,          10.,           0.,          50.
     34,          10.,          10.,          45.
     35,          10.,           5.,          45.
     36,          10.,           0.,          45.
     37,          10.,          10.,          40.
     38,          10.,           5.,          40.
     39,          10.,           0.,          40.
     40,          10.,          10.,          35.
     41,          10.,           5.,          35.
     42,          10.,           0.,          35.
     43,          10.,          10.,          30.
     44,          10.,           5.,          30.
     45,          10.,           0.,          30.
     46,          10.,          10.,          25.
     47,          10.,           5.,          25.
     48,          10.,           0.,          25.
     49,          10.,          10.,          20.
     50,          10.,           5.,          20.
     51,          10.,           0.,          20.
     52,          10.,          10.,          15.
     53,          10.,           5.,          15.
     54,          10.,           0.,          15.
     55,          10.,          10.,          10.
     56,          10.,           5.,          10.
     57,          10.,           0.,          10.
     58,          10.,          10.,           5.
     59,          10.,           5.,           5.
     60,          10.,           0.,           5.
     61,          10.,          10.,           0.
     62,          10.,           5.,           0.
     63,          10.,           0.,           0.
     64,           5.,          10.,         100.
     65,           5.,           5.,         100.
     66,           5.,           0.,         100.
     67,           5.,          10.,          95.
     68,           5.,           5.,          95.
     69,           5.,           0.,          95.
     70,           5.,          10.,          90.
     71,           5.,           5.,          90.
     72,           5.,           0.,          90.
     73,           5.,          10.,          85.
     74,           5.,           5.,          85.
     75,           5.,           0.,          85.
     76,           5.,          10.,          80.
     77,           5.,           5.,          80.
     78,           5.,           0.,          80.
     79,           5.,          10.,          75.
     80,           5.,           5.,          75.
     81,           5.,           0.,          75.
     82,           5.,          10.,          70.
     83,           5.,           5.,          70.
     84,           5.,           0.,          70.
     85,           5.,          10.,          65.
     86,           5.,           5.,          65.
     87,           5.,           0.,          65.
     88,           5.,          10.,          60.
     89,           5.,           5.,          60.
     90,           5.,           0.,          60.
     91,           5.,          10.,          55.
     92,           5.,           5.,          55.
     93,           5.,           0.,          55.
     94,           5.,          10.,          50.
     95,           5.,           5.,          50.
     96,           5.,           0.,          50.
     97,           5.,          10.,          45.
     98,           5.,           5.,          45.
     99,           5.,           0.,          45.
    100,           5.,          10.,          40.
    101,           5.,           5.,          40.
    102,           5.,           0.,          40.
    103,           5.,          10.,          35.
    104,           5.,           5.,          35.
    105,           5.,           0.,          35.
    106,           5.,          10.,          30.
    107,           5.,           5.,          30.
    108,           5.,           0.,          30.
    109,           5.,          10.,          25.
    110,           5.,           5.,          25.
    111,           5.,           0.,          25.
    112,           5.,          10.,          20.
    113,           5.,           5.,          20.
    114,           5.,           0.,          20.
    115,           5.,          10.,          15.
    116,           5.,           5.,          15.
    117,           5.,           0.,          15.
    118,           5.,          10.,          10.
    119,           5.,           5.,          10.
    120,           5.,           0.,          10.
    121,           5.,          10.,           5.
    122,           5.,           5.,           5.
    123,           5.,           0.,           5.
    124,           5.,          10.,           0.
    125,           5.,           5.,           0.
    126,           5.,           0.,           0.
    127,           0.,          10.,         100.
    128,           0.,           5.,         100.
    129,           0.,           0.,         100.
    130,           0.,          10.,          95.
    131,           0.,           5.,          95.
    132,           0.,           0.,          95.
    133,           0.,          10.,          90.
    134,           0.,           5.,          90.
    135,           0.,           0.,          90.
    136,           0.,          10.,          85.
    137,           0.,           5.,          85.
    138,           0.,           0.,          85.
    139,           0.,          10.,          80.
    140,           0.,           5.,          80.
    141,           0.,           0.,          80.
    142,           0.,          10.,          75.
    143,           0.,           5.,          75.
    144,           0.,           0.,          75.
    145,           0.,          10.,          70.
    146,           0.,           5.,          70.
    147,           0.,           0.,          70.
    148,           0.,          10.,          65.
    149,           0.,           5.,          65.
    150,           0.,           0.,          65.
    151,           0.,          10.,          60.
    152,           0.,           5.,          60.
    153,           0.,           0.,          60.
    154,           0.,          10.,          55.
    155,           0.,           5.,          55.
    156,           0.,           0.,          55.
    157,           0.,          10.,          50.
    158,           0.,           5.,          50.
    159,           0.,           0.,          50.
    160,           0.,          10.,          45.
    161,           0.,           5.,          45.
    162,           0.,           0.,          45.
    163,           0.,          10.,          40.
    164,           0.,           5.,          40.
    165,           0.,           0.,          40.
    166,           0.,          10.,          35.
    167,           0.,           5.,          35.
    168,           0.,           0.,          35.
    169,           0.,          10.,          30.
    170,           0.,           5.,          30.
    171,           0.,           0.,          30.
    172,           0.,          10.,          25.
    173,           0.,           5.,          25.
    174,           0.,           0.,          25.
    175,           0.,          10.,          20.
    176,           0.,           5.,          20.
    177,           0.,           0.,          20.
    178,           0.,          10.,          15.
    179,           0.,           5.,          15.
    180,           0.,           0.,          15.
    181,           0.,          10.,          10.
    182,           0.,           5.,          10.
    183,           0.,           0.,          10.
    184,           0.,          10.,           5.
    185,           0.,           5.,           5.
    186,           0.,           0.,           5.
    187,           0.,          10.,           0.
    188,           0.,           5.,           0.
    189,           0.,           0.,           0.
    190,           5.,          10.,         97.5
    191,           5.,          7.5,          95.
    192,           5.,           5.,         97.5
    193,           5.,          7.5,         100.
    194,          10.,          7.5,         100.
    195,          10.,           5.,         97.5
    196,          10.,          7.5,          95.
    197,          10.,          10.,         97.5
    198,          7.5,           5.,         100.
    199,          7.5,          10.,         100.
    200,          7.5,           5.,          95.
    201,          7.5,          10.,          95.
    202,           5.,          2.5,          95.
    203,           5.,           0.,         97.5
    204,           5.,          2.5,         100.
    205,          10.,          2.5,         100.
    206,          10.,           0.,         97.5
    207,          10.,          2.5,          95.
    208,          7.5,           0.,         100.
    209,          7.5,           0.,          95.
    210,           5.,          10.,         92.5
    211,           5.,          7.5,          90.
    212,           5.,           5.,         92.5
    213,          10.,           5.,         92.5
    214,          10.,          7.5,          90.
    215,          10.,          10.,         92.5
    216,          7.5,           5.,          90.
    217,          7.5,          10.,          90.
    218,           5.,          2.5,          90.
    219,           5.,           0.,         92.5
    220,          10.,           0.,         92.5
    221,          10.,          2.5,          90.
    222,          7.5,           0.,          90.
    223,           5.,          10.,         87.5
    224,           5.,          7.5,          85.
    225,           5.,           5.,         87.5
    226,          10.,           5.,         87.5
    227,          10.,          7.5,          85.
    228,          10.,          10.,         87.5
    229,          7.5,           5.,          85.
    230,          7.5,          10.,          85.
    231,           5.,          2.5,          85.
    232,           5.,           0.,         87.5
    233,          10.,           0.,         87.5
    234,          10.,          2.5,          85.
    235,          7.5,           0.,          85.
    236,           5.,          10.,         82.5
    237,           5.,          7.5,          80.
    238,           5.,           5.,         82.5
    239,          10.,           5.,         82.5
    240,          10.,          7.5,          80.
    241,          10.,          10.,         82.5
    242,          7.5,           5.,          80.
    243,          7.5,          10.,          80.
    244,           5.,          2.5,          80.
    245,           5.,           0.,         82.5
    246,          10.,           0.,         82.5
    247,          10.,          2.5,          80.
    248,          7.5,           0.,          80.
    249,           5.,          10.,         77.5
    250,           5.,          7.5,          75.
    251,           5.,           5.,         77.5
    252,          10.,           5.,         77.5
    253,          10.,          7.5,          75.
    254,          10.,          10.,         77.5
    255,          7.5,           5.,          75.
    256,          7.5,          10.,          75.
    257,           5.,          2.5,          75.
    258,           5.,           0.,         77.5
    259,          10.,           0.,         77.5
    260,          10.,          2.5,          75.
    261,          7.5,           0.,          75.
    262,           5.,          10.,         72.5
    263,           5.,          7.5,          70.
    264,           5.,           5.,         72.5
    265,          10.,           5.,         72.5
    266,          10.,          7.5,          70.
    267,          10.,          10.,         72.5
    268,          7.5,           5.,          70.
    269,          7.5,          10.,          70.
    270,           5.,          2.5,          70.
    271,           5.,           0.,         72.5
    272,          10.,           0.,         72.5
    273,          10.,          2.5,          70.
    274,          7.5,           0.,          70.
    275,           5.,          10.,         67.5
    276,           5.,          7.5,          65.
    277,           5.,           5.,         67.5
    278,          10.,           5.,         67.5
    279,          10.,          7.5,          65.
    280,          10.,          10.,         67.5
    281,          7.5,           5.,          65.
    282,          7.5,          10.,          65.
    283,           5.,          2.5,          65.
    284,           5.,           0.,         67.5
    285,          10.,           0.,         67.5
    286,          10.,          2.5,          65.
    287,          7.5,           0.,          65.
    288,           5.,          10.,         62.5
    289,           5.,          7.5,          60.
    290,           5.,           5.,         62.5
    291,          10.,           5.,         62.5
    292,          10.,          7.5,          60.
    293,          10.,          10.,         62.5
    294,          7.5,           5.,          60.
    295,          7.5,          10.,          60.
    296,           5.,          2.5,          60.
    297,           5.,           0.,         62.5
    298,          10.,           0.,         62.5
    299,          10.,          2.5,          60.
    300,          7.5,           0.,          60.
    301,           5.,          10.,         57.5
    302,           5.,          7.5,          55.
    303,           5.,           5.,         57.5
    304,          10.,           5.,         57.5
    305,          10.,          7.5,          55.
    306,          10.,          10.,         57.5
    307,          7.5,           5.,          55.
    308,          7.5,          10.,          55.
    309,           5.,          2.5,          55.
    310,           5.,           0.,         57.5
    311,          10.,           0.,         57.5
    312,          10.,          2.5,          55.
    313,          7.5,           0.,          55.
    314,           5.,          10.,         52.5
    315,           5.,          7.5,          50.
    316,           5.,           5.,         52.5
    317,          10.,           5.,         52.5
    318,          10.,          7.5,          50.
    319,          10.,          10.,         52.5
    320,          7.5,           5.,          50.
    321,          7.5,          10.,          50.
    322,           5.,          2.5,          50.
    323,           5.,           0.,         52.5
    324,          10.,           0.,         52.5
    325,          10.,          2.5,          50.
    326,          7.5,           0.,          50.
    327,           5.,          10.,         47.5
    328,           5.,          7.5,          45.
    329,           5.,           5.,         47.5
    330,          10.,           5.,         47.5
    331,          10.,          7.5,          45.
    332,          10.,          10.,         47.5
    333,          7.5,           5.,          45.
    334,          7.5,          10.,          45.
    335,           5.,          2.5,          45.
    336,           5.,           0.,         47.5
    337,          10.,           0.,         47.5
    338,          10.,          2.5,          45.
    339,          7.5,           0.,          45.
    340,           5.,          10.,         42.5
    341,           5.,          7.5,          40.
    342,           5.,           5.,         42.5
    343,          10.,           5.,         42.5
    344,          10.,          7.5,          40.
    345,          10.,          10.,         42.5
    346,          7.5,           5.,          40.
    347,          7.5,          10.,          40.
    348,           5.,          2.5,          40.
    349,           5.,           0.,         42.5
    350,          10.,           0.,         42.5
    351,          10.,          2.5,          40.
    352,          7.5,           0.,          40.
    353,           5.,          10.,         37.5
    354,           5.,          7.5,          35.
    355,           5.,           5.,         37.5
    356,          10.,           5.,         37.5
    357,          10.,          7.5,          35.
    358,          10.,          10.,         37.5
    359,          7.5,           5.,          35.
    360,          7.5,          10.,          35.
    361,           5.,          2.5,          35.
    362,           5.,           0.,         37.5
    363,          10.,           0.,         37.5
    364,          10.,          2.5,          35.
    365,          7.5,           0.,          35.
    366,           5.,          10.,         32.5
    367,           5.,          7.5,          30.
    368,           5.,           5.,         32.5
    369,          10.,           5.,         32.5
    370,          10.,          7.5,          30.
    371,          10.,          10.,         32.5
    372,          7.5,           5.,          30.
    373,          7.5,          10.,          30.
    374,           5.,          2.5,          30.
    375,           5.,           0.,         32.5
    376,          10.,           0.,         32.5
    377,          10.,          2.5,          30.
    378,          7.5,           0.,          30.
    379,           5.,          10.,         27.5
    380,           5.,          7.5,          25.
    381,           5.,           5.,         27.5
    382,          10.,           5.,         27.5
    383,          10.,          7.5,          25.
    384,          10.,          10.,         27.5
    385,          7.5,           5.,          25.
    386,          7.5,          10.,          25.
    387,           5.,          2.5,          25.
    388,           5.,           0.,         27.5
    389,          10.,           0.,         27.5
    390,          10.,          2.5,          25.
    391,          7.5,           0.,          25.
    392,           5.,          10.,         22.5
    393,           5.,          7.5,          20.
    394,           5.,           5.,         22.5
    395,          10.,           5.,         22.5
    396,          10.,          7.5,          20.
    397,          10.,          10.,         22.5
    398,          7.5,           5.,          20.
    399,          7.5,          10.,          20.
    400,           5.,          2.5,          20.
    401,           5.,           0.,         22.5
    402,          10.,           0.,         22.5
    403,          10.,          2.5,          20.
    404,          7.5,           0.,          20.
    405,           5.,          10.,         17.5
    406,           5.,          7.5,          15.
    407,           5.,           5.,         17.5
    408,          10.,           5.,         17.5
    409,          10.,          7.5,          15.
    410,          10.,          10.,         17.5
    411,          7.5,           5.,          15.
    412,          7.5,          10.,          15.
    413,           5.,          2.5,          15.
    414,           5.,           0.,         17.5
    415,          10.,           0.,         17.5
    416,          10.,          2.5,          15.
    417,          7.5,           0.,          15.
    418,           5.,          10.,         12.5
    419,           5.,          7.5,          10.
    420,           5.,           5.,         12.5
    421,          10.,           5.,         12.5
    422,          10.,          7.5,          10.
    423,          10.,          10.,         12.5
    424,          7.5,           5.,          10.
    425,          7.5,          10.,          10.
    426,           5.,          2.5,          10.
    427,           5.,           0.,         12.5
    428,          10.,           0.,         12.5
    429,          10.,          2.5,          10.
    430,          7.5,           0.,          10.
    431,           5.,          10.,          7.5
    432,           5.,          7.5,           5.
    433,           5.,           5.,          7.5
    434,          10.,           5.,          7.5
    435,          10.,          7.5,           5.
    436,          10.,          10.,          7.5
    437,          7.5,           5.,           5.
    438,          7.5,          10.,           5.
    439,           5.,          2.5,           5.
    440,           5.,           0.,          7.5
    441,          10.,           0.,          7.5
    442,          10.,          2.5,           5.
    443,          7.5,           0.,           5.
    444,           5.,          10.,          2.5
    445,           5.,          7.5,           0.
    446,           5.,           5.,          2.5
    447,          10.,           5.,          2.5
    448,          10.,          7.5,           0.
    449,          10.,          10.,          2.5
    450,          7.5,           5.,           0.
    451,          7.5,          10.,           0.
    452,           5.,          2.5,           0.
    453,           5.,           0.,          2.5
    454,          10.,           0.,          2.5
    455,          10.,          2.5,           0.
    456,          7.5,           0.,           0.
    457,           0.,          10.,         97.5
    458,           0.,          7.5,          95.
    459,           0.,           5.,         97.5
    460,           0.,          7.5,         100.
    461,          2.5,           5.,         100.
    462,          2.5,          10.,         100.
    463,          2.5,           5.,          95.
    464,          2.5,          10.,          95.
    465,           0.,          2.5,          95.
    466,           0.,           0.,         97.5
    467,           0.,          2.5,         100.
    468,          2.5,           0.,         100.
    469,          2.5,           0.,          95.
    470,           0.,          10.,         92.5
    471,           0.,          7.5,          90.
    472,           0.,           5.,         92.5
    473,          2.5,           5.,          90.
    474,          2.5,          10.,          90.
    475,           0.,          2.5,          90.
    476,           0.,           0.,         92.5
    477,          2.5,           0.,          90.
    478,           0.,          10.,         87.5
    479,           0.,          7.5,          85.
    480,           0.,           5.,         87.5
    481,          2.5,           5.,          85.
    482,          2.5,          10.,          85.
    483,           0.,          2.5,          85.
    484,           0.,           0.,         87.5
    485,          2.5,           0.,          85.
    486,           0.,          10.,         82.5
    487,           0.,          7.5,          80.
    488,           0.,           5.,         82.5
    489,          2.5,           5.,          80.
    490,          2.5,          10.,          80.
    491,           0.,          2.5,          80.
    492,           0.,           0.,         82.5
    493,          2.5,           0.,          80.
    494,           0.,          10.,         77.5
    495,           0.,          7.5,          75.
    496,           0.,           5.,         77.5
    497,          2.5,           5.,          75.
    498,          2.5,          10.,          75.
    499,           0.,          2.5,          75.
    500,           0.,           0.,         77.5
    501,          2.5,           0.,          75.
    502,           0.,          10.,         72.5
    503,           0.,          7.5,          70.
    504,           0.,           5.,         72.5
    505,          2.5,           5.,          70.
    506,          2.5,          10.,          70.
    507,           0.,          2.5,          70.
    508,           0.,           0.,         72.5
    509,          2.5,           0.,          70.
    510,           0.,          10.,         67.5
    511,           0.,          7.5,          65.
    512,           0.,           5.,         67.5
    513,          2.5,           5.,          65.
    514,          2.5,          10.,          65.
    515,           0.,          2.5,          65.
    516,           0.,           0.,         67.5
    517,          2.5,           0.,          65.
    518,           0.,          10.,         62.5
    519,           0.,          7.5,          60.
    520,           0.,           5.,         62.5
    521,          2.5,           5.,          60.
    522,          2.5,          10.,          60.
    523,           0.,          2.5,          60.
    524,           0.,           0.,         62.5
    525,          2.5,           0.,          60.
    526,           0.,          10.,         57.5
    527,           0.,          7.5,          55.
    528,           0.,           5.,         57.5
    529,          2.5,           5.,          55.
    530,          2.5,          10.,          55.
    531,           0.,          2.5,          55.
    532,           0.,           0.,         57.5
    533,          2.5,           0.,          55.
    534,           0.,          10.,         52.5
    535,           0.,          7.5,          50.
    536,           0.,           5.,         52.5
    537,          2.5,           5.,          50.
    538,          2.5,          10.,          50.
    539,           0.,          2.5,          50.
    540,           0.,           0.,         52.5
    541,          2.5,           0.,          50.
    542,           0.,          10.,         47.5
    543,           0.,          7.5,          45.
    544,           0.,           5.,         47.5
    545,          2.5,           5.,          45.
    546,          2.5,          10.,          45.
    547,           0.,          2.5,          45.
    548,           0.,           0.,         47.5
    549,          2.5,           0.,          45.
    550,           0.,          10.,         42.5
    551,           0.,          7.5,          40.
    552,           0.,           5.,         42.5
    553,          2.5,           5.,          40.
    554,          2.5,          10.,          40.
    555,           0.,          2.5,          40.
    556,           0.,           0.,         42.5
    557,          2.5,           0.,          40.
    558,           0.,          10.,         37.5
    559,           0.,          7.5,          35.
    560,           0.,           5.,         37.5
    561,          2.5,           5.,          35.
    562,          2.5,          10.,          35.
    563,           0.,          2.5,          35.
    564,           0.,           0.,         37.5
    565,          2.5,           0.,          35.
    566,           0.,          10.,         32.5
    567,           0.,          7.5,          30.
    568,           0.,           5.,         32.5
    569,          2.5,           5.,          30.
    570,          2.5,          10.,          30.
    571,           0.,          2.5,          30.
    572,           0.,           0.,         32.5
    573,          2.5,           0.,          30.
    574,           0.,          10.,         27.5
    575,           0.,          7.5,          25.
    576,           0.,           5.,         27.5
    577,          2.5,           5.,          25.
    578,          2.5,          10.,          25.
    579,           0.,          2.5,          25.
    580,           0.,           0.,         27.5
    581,          2.5,           0.,          25.
    582,           0.,          10.,         22.5
    583,           0.,          7.5,          20.
    584,           0.,           5.,         22.5
    585,          2.5,           5.,          20.
    586,          2.5,          10.,          20.
    587,           0.,          2.5,          20.
    588,           0.,           0.,         22.5
    589,          2.5,           0.,          20.
    590,           0.,          10.,         17.5
    591,           0.,          7.5,          15.
    592,           0.,           5.,         17.5
    593,          2.5,           5.,          15.
    594,          2.5,          10.,          15.
    595,           0.,          2.5,          15.
    596,           0.,           0.,         17.5
    597,          2.5,           0.,          15.
    598,           0.,          10.,         12.5
    599,           0.,          7.5,          10.
    600,           0.,           5.,         12.5
    601,          2.5,           5.,          10.
    602,          2.5,          10.,          10.
    603,           0.,          2.5,          10.
    604,           0.,           0.,         12.5
    605,          2.5,           0.,          10.
    606,           0.,          10.,          7.5
    607,           0.,          7.5,           5.
    608,           0.,           5.,          7.5
    609,          2.5,           5.,           5.
    610,          2.5,          10.,           5.
    611,           0.,          2.5,           5.
    612,           0.,           0.,          7.5
    613,          2.5,           0.,           5.
    614,           0.,          10.,          2.5
    615,           0.,          7.5,           0.
    616,           0.,           5.,          2.5
    617,          2.5,           5.,           0.
    618,          2.5,          10.,           0.
    619,           0.,          2.5,           0.
    620,           0.,           0.,          2.5
    621,          2.5,           0.,           0.
*Element, type=C3D20
 1,  64,  65,  68,  67,   1,   2,   5,   4, 193, 192, 191, 190, 194, 195, 196,
    197, 199, 198, 200, 201
 2,  65,  66,  69,  68,   2,   3,   6,   5, 204, 203, 202, 192, 205, 206, 207,
    195, 198, 208, 209, 200
 3,  67,  68,  71,  70,   4,   5,   8,   7, 191, 212, 211, 210, 196, 213, 214,
    215, 201, 200, 216, 217
 4,  68,  69,  72,  71,   5,   6,   9,   8, 202, 219, 218, 212, 207, 220, 221,
    213, 200, 209, 222, 216
 5,  70,  71,  74,  73,   7,   8,  11,  10, 211, 225, 224, 223, 214, 226, 227,
    228, 217, 216, 229, 230
 6,  71,  72,  75,  74,   8,   9,  12,  11, 218, 232, 231, 225, 221, 233, 234,
    226, 216, 222, 235, 229
 7,  73,  74,  77,  76,  10,  11,  14,  13, 224, 238, 237, 236, 227, 239, 240,
    241, 230, 229, 242, 243
 8,  74,  75,  78,  77,  11,  12,  15,  14, 231, 245, 244, 238, 234, 246, 247,
    239, 229, 235, 248, 242
 9,  76,  77,  80,  79,  13,  14,  17,  16, 237, 251, 250, 249, 240, 252, 253,
    254, 243, 242, 255, 256
10,  77,  78,  81,  80,  14,  15,  18,  17, 244, 258, 257, 251, 247, 259, 260,
    252, 242, 248, 261, 255
11,  79,  80,  83,  82,  16,  17,  20,  19, 250, 264, 263, 262, 253, 265, 266,
    267, 256, 255, 268, 269
12,  80,  81,  84,  83,  17,  18,  21,  20, 257, 271, 270, 264, 260, 272, 273,
    265, 255, 261, 274, 268
13,  82,  83,  86,  85,  19,  20,  23,  22, 263, 277, 276, 275, 266, 278, 279,
    280, 269, 268, 281, 282
14,  83,  84,  87,  86,  20,  21,  24,  23, 270, 284, 283, 277, 273, 285, 286,
    278, 268, 274, 287, 281
15,  85,  86,  89,  88,  22,  23,  26,  25, 276, 290, 289, 288, 279, 291, 292,
    293, 282, 281, 294, 295
16,  86,  87,  90,  89,  23,  24,  27,  26, 283, 297, 296, 290, 286, 298, 299,
    291, 281, 287, 300, 294
17,  88,  89,  92,  91,  25,  26,  29,  28, 289, 303, 302, 301, 292, 304, 305,
    306, 295, 294, 307, 308
18,  89,  90,  93,  92,  26,  27,  30,  29, 296, 310, 309, 303, 299, 311, 312,
    304, 294, 300, 313, 307
19,  91,  92,  95,  94,  28,  29,  32,  31, 302, 316, 315, 314, 305, 317, 318,
    319, 308, 307, 320, 321
20,  92,  93,  96,  95,  29,  30,  33,  32, 309, 323, 322, 316, 312, 324, 325,
    317, 307, 313, 326, 320
21,  94,  95,  98,  97,  31,  32,  35,  34, 315, 329, 328, 327, 318, 330, 331,
    332, 321, 320, 333, 334
22,  95,  96,  99,  98,  32,  33,  36,  35, 322, 336, 335, 329, 325, 337, 338,
    330, 320, 326, 339, 333
23,  97,  98, 101, 100,  34,  35,  38,  37, 328, 342, 341, 340, 331, 343, 344,
    345, 334, 333, 346, 347
24,  98,  99, 102, 101,  35,  36,  39,  38, 335, 349, 348, 342, 338, 350, 351,
    343, 333, 339, 352, 346
25, 100, 101, 104, 103,  37,  38,  41,  40, 341, 355, 354, 353, 344, 356, 357,
    358, 347, 346, 359, 360
26, 101, 102, 105, 104,  38,  39,  42,  41, 348, 362, 361, 355, 351, 363, 364,
    356, 346, 352, 365, 359
27, 103, 104, 107, 106,  40,  41,  44,  43, 354, 368, 367, 366, 357, 369, 370,
    371, 360, 359, 372, 373
28, 104, 105, 108, 107,  41,  42,  45,  44, 361, 375, 374, 368, 364, 376, 377,
    369, 359, 365, 378, 372
29, 106, 107, 110, 109,  43,  44,  47,  46, 367, 381, 380, 379, 370, 382, 383,
    384, 373, 372, 385, 386
30, 107, 108, 111, 110,  44,  45,  48,  47, 374, 388, 387, 381, 377, 389, 390,
    382, 372, 378, 391, 385
31, 109, 110, 113, 112,  46,  47,  50,  49, 380, 394, 393, 392, 383, 395, 396,
    397, 386, 385, 398, 399
32, 110, 111, 114, 113,  47,  48,  51,  50, 387, 401, 400, 394, 390, 402, 403,
    395, 385, 391, 404, 398
33, 112, 113, 116, 115,  49,  50,  53,  52, 393, 407, 406, 405, 396, 408, 409,
    410, 399, 398, 411, 412
34, 113, 114, 117, 116,  50,  51,  54,  53, 400, 414, 413, 407, 403, 415, 416,
    408, 398, 404, 417, 411
35, 115, 116, 119, 118,  52,  53,  56,  55, 406, 420, 419, 418, 409, 421, 422,
    423, 412, 411, 424, 425
36, 116, 117, 120, 119,  53,  54,  57,  56, 413, 427, 426, 420, 416, 428, 429,
    421, 411, 417, 430, 424
37, 118, 119, 122, 121,  55,  56,  59,  58, 419, 433, 432, 431, 422, 434, 435,
    436, 425, 424, 437, 438
38, 119, 120, 123, 122,  56,  57,  60,  59, 426, 440, 439, 433, 429, 441, 442,
    434, 424, 430, 443, 437
39, 121, 122, 125, 124,  58,  59,  62,  61, 432, 446, 445, 444, 435, 447, 448,
    449, 438, 437, 450, 451
40, 122, 123, 126, 125,  59,  60,  63,  62, 439, 453, 452, 446, 442, 454, 455,
    447, 437, 443, 456, 450
41, 127, 128, 131, 130,  64,  65,  68,  67, 460, 459, 458, 457, 193, 192, 191,
    190, 462, 461, 463, 464
42, 128, 129, 132, 131,  65,  66,  69,  68, 467, 466, 465, 459, 204, 203, 202,
    192, 461, 468, 469, 463
43, 130, 131, 134, 133,  67,  68,  71,  70, 458, 472, 471, 470, 191, 212, 211,
    210, 464, 463, 473, 474
44, 131, 132, 135, 134,  68,  69,  72,  71, 465, 476, 475, 472, 202, 219, 218,
    212, 463, 469, 477, 473
45, 133, 134, 137, 136,  70,  71,  74,  73, 471, 480, 479, 478, 211, 225, 224,
    223, 474, 473, 481, 482
46, 134, 135, 138, 137,  71,  72,  75,  74, 475, 484, 483, 480, 218, 232, 231,
    225, 473, 477, 485, 481
47, 136, 137, 140, 139,  73,  74,  77,  76, 479, 488, 487, 486, 224, 238, 237,
    236, 482, 481, 489, 490
48, 137, 138, 141, 140,  74,  75,  78,  77, 483, 492, 491, 488, 231, 245, 244,
    238, 481, 485, 493, 489
49, 139, 140, 143, 142,  76,  77,  80,  79, 487, 496, 495, 494, 237, 251, 250,
    249, 490, 489, 497, 498
50, 140, 141, 144, 143,  77,  78,  81,  80, 491, 500, 499, 496, 244, 258, 257,
    251, 489, 493, 501, 497
51, 142, 143, 146, 145,  79,  80,  83,  82, 495, 504, 503, 502, 250, 264, 263,
    262, 498, 497, 505, 506
52, 143, 144, 147, 146,  80,  81,  84,  83, 499, 508, 507, 504, 257, 271, 270,
    264, 497, 501, 509, 505
53, 145, 146, 149, 148,  82,  83,  86,  85, 503, 512, 511, 510, 263, 277, 276,
    275, 506, 505, 513, 514
54, 146, 147, 150, 149,  83,  84,  87,  86, 507, 516, 515, 512, 270, 284, 283,
    277, 505, 509, 517, 513
55, 148, 149, 152, 151,  85,  86,  89,  88, 511, 520, 519, 518, 276, 290, 289,
    288, 514, 513, 521, 522
56, 149, 150, 153, 152,  86,  87,  90,  89, 515, 524, 523, 520, 283, 297, 296,
    290, 513, 517, 525, 521
57, 151, 152, 155, 154,  88,  89,  92,  91, 519, 528, 527, 526, 289, 303, 302,
    301, 522, 521, 529, 530
58, 152, 153, 156, 155,  89,  90,  93,  92, 523, 532, 531, 528, 296, 310, 309,
    303, 521, 525, 533, 529
59, 154, 155, 158, 157,  91,  92,  95,  94, 527, 536, 535, 534, 302, 316, 315,
    314, 530, 529, 537, 538
60, 155, 156, 159, 158,  92,  93,  96,  95, 531, 540, 539, 536, 309, 323, 322,
    316, 529, 533, 541, 537
61, 157, 158, 161, 160,  94,  95,  98,  97, 535, 544, 543, 542, 315, 329, 328,
    327, 538, 537, 545, 546
62, 158, 159, 162, 161,  95,  96,  99,  98, 539, 548, 547, 544, 322, 336, 335,
    329, 537, 541, 549, 545
63, 160, 161, 164, 163,  97,  98, 101, 100, 543, 552, 551, 550, 328, 342, 341,
    340, 546, 545, 553, 554
64, 161, 162, 165, 164,  98,  99, 102, 101, 547, 556, 555, 552, 335, 349, 348,
    342, 545, 549, 557, 553
65, 163, 164, 167, 166, 100, 101, 104, 103, 551, 560, 559, 558, 341, 355, 354,
    353, 554, 553, 561, 562
66, 164, 165, 168, 167, 101, 102, 105, 104, 555, 564, 563, 560, 348, 362, 361,
    355, 553, 557, 565, 561
67, 166, 167, 170, 169, 103, 104, 107, 106, 559, 568, 567, 566, 354, 368, 367,
    366, 562, 561, 569, 570
68, 167, 168, 171, 170, 104, 105, 108, 107, 563, 572, 571, 568, 361, 375, 374,
    368, 561, 565, 573, 569
69, 169, 170, 173, 172, 106, 107, 110, 109, 567, 576, 575, 574, 367, 381, 380,
    379, 570, 569, 577, 578
70, 170, 171, 174, 173, 107, 108, 111, 110, 571, 580, 579, 576, 374, 388, 387,
    381, 569, 573, 581, 577
71, 172, 173, 176, 175, 109, 110, 113, 112, 575, 584, 583, 582, 380, 394, 393,
    392, 578, 577, 585, 586
72, 173, 174, 177, 176, 110, 111, 114, 113, 579, 588, 587, 584, 387, 401, 400,
    394, 577, 581, 589, 585
73, 175, 176, 179, 178, 112, 113, 116, 115, 583, 592, 591, 590, 393, 407, 406,
    405, 586, 585, 593, 594
74, 176, 177, 180, 179, 113, 114, 117, 116, 587, 596, 595, 592, 400, 414, 413,
    407, 585, 589, 597, 593
75, 178, 179, 182, 181, 115, 116, 119, 118, 591, 600, 599, 598, 406, 420, 419,
    418, 594, 593, 601, 602
76, 179, 180, 183, 182, 116, 117, 120, 119, 595, 604, 603, 600, 413, 427, 426,
    420, 593, 597, 605, 601
77, 181, 182, 185, 184, 118, 119, 122, 121, 599, 608, 607, 606, 419, 433, 432,
    431, 602, 601, 609, 610
78, 182, 183, 186, 185, 119, 120, 123, 122, 603, 612, 611, 608, 426, 440, 439,
    433, 601, 605, 613, 609
79, 184, 185, 188, 187, 121, 122, 125, 124, 607, 616, 615, 614, 432, 446, 445,
    444, 610, 609, 617, 618
80, 185, 186, 189, 188, 122, 123, 126, 125, 611, 620, 619, 616, 439, 453, 452,
    446, 609, 613, 621, 617
*Nset, nset=Set-Steel, generate
   1,  621,    1
*Elset, elset=Set-Steel, generate
  1,  80,   1
** Section: Section
*Solid Section, elset=Set-Steel, material=Steel
,
*End Part
**
**
** ASSEMBLY
**
*Assembly, name=Assembly
**
*Instance, name=Cantilever_Beam-1, part=Cantilever_Beam
*End Instance
**
*Nset, nset=Set-Fixed, instance=Cantilever_Beam-1
   1,   2,   3,  64,  65,  66, 127, 128, 129, 193, 194, 198, 199, 204, 205, 208
 460, 461, 462, 467, 468
*Elset, elset=Set-Fixed, instance=Cantilever_Beam-1
  1,  2, 41, 42
*Elset, elset=_Surf-1_S5, internal, instance=Cantilever_Beam-1
 39, 40, 79, 80
*Surface, type=ELEMENT, name=Surf-Traction
_Surf-1_S5, S5
*End Assembly
**
** MATERIALS
**
*Material, name=Steel
*Density
 7.85e-09,
*Elastic
206000., 0.3
** ----------------------------------------------------------------
**
** STEP: Step-1
**
*Step, name=Step-1, nlgeom=NO
*Static
1., 1., 1e-05, 1.
**
** BOUNDARY CONDITIONS
**
** Name: BC-1 Type: Displacement/Rotation
*Boundary
Set-Fixed, ENCASTRE
**
** LOADS
**
** Name: Load-1   Type: Surface traction
*Dsload
Surf-Traction, TRSHR, 10., 0., -1., 0.
** Name: Load-Gravity   Type: Gravity
*Dload
, GRAV, 9810., 0., -1., 0.
**
** OUTPUT REQUESTS
**
*Restart, write, frequency=0
**
** FIELD OUTPUT: F-Output-1
**
*Output, field, variable=PRESELECT
**
** HISTORY OUTPUT: H-Output-1
**
*Output, history, variable=PRESELECT
*End Step
